19

983 4915
671 508
602 472
177 616
468 931
159 552
291 390
427 299
177 421
257 922
387 916
666 957
406 847
668 534
741 120
652 760
82 551
29 737
230 281
466 391
360 157
209 692
35 710
153 514
182 875
552 795
877 379
273 617
438 787
687 269
193 150
622 53
86 621
530 418
911 35
62 172
86 873
402 49
128 527
842 112
590 787
278 850
482 844
581 155
209 627
320 284
620 423
947 919
756 825
207 226
668 937
156 119
929 817
489 663
218 424
861 300
735 141
257 70
3 147
629 816
726 220
888 118
796 972
101 479
86 355
132 930
237 631
577 588
148 152
477 830
577 731
596 97
562 708
906 443
675 831
583 94
784 480
864 297
862 825
629 231
857 705
564 487
482 839
483 47
393 315
620 481
469 336
648 469
839 129
571 146
19 209
121 240
719 10
131 811
545 803
934 770
905 549
929 714
803 103
235 18
716 828
348 851
883 277
661 175
403 735
649 622
869 421
584 150
50 558
336 790
553 375
759 412
772 297
132 748
645 762
397 651
35 152
537 980
792 423
442 250
647 76
502 279
597 689
160 292
672 498
213 419
741 630
52 604
676 593
770 460
700 923
427 114
956 487
171 601
889 393
64 727
943 172
211 863
857 683
753 508
588 64
873 326
95 80
151 663
298 953
383 319
166 971
47 157
433 918
877 851
107 536
716 113
110 393
113 305
132 288
188 453
316 242
338 598
27 692
211 518
820 258
641 688
71 376
608 242
238 301
241 2
359 348
59 714
151 32
66 175
178 565
621 153
342 768
839 526
515 280
815 788
31 909
910 109
70 766
930 631
237 721
823 565
772 118
837 657
137 347
596 15
853 109
580 790
45 61
330 123
948 343
566 442
699 632
548 913
854 614
775 120
194 96
583 69
867 3
509 800
788 584
571 328
310 284
572 556
976 434
722 129
761 375
173 982
872 302
173 108
356 476
138 619
97 645
473 88
736 248
644 878
739 296
546 543
958 497
431 61
192 165
194 748
502 390
674 536
259 777
642 347
623 922
256 865
188 356
830 704
707 950
318 140
467 423
951 353
325 973
197 920
434 891
661 452
810 347
505 66
558 206
100 341
372 480
119 134
818 894
965 72
675 165
953 186
590 28
68 148
37 42
79 354
258 370
738 799
372 513
427 483
284 104
503 707
785 24
576 208
493 275
702 900
121 408
962 314
968 688
48 294
70 730
912 165
70 744
956 777
698 175
738 139
496 738
26 905
298 914
328 678
830 730
778 981
667 767
110 340
426 964
716 951
401 411
310 160
148 187
629 83
829 805
408 499
227 153
870 871
501 149
228 794
251 728
749 335
287 656
374 609
364 243
251 803
40 776
422 697
760 141
939 763
317 376
571 655
102 657
965 887
500 799
236 246
609 120
810 43
578 594
720 109
137 392
672 216
411 108
600 604
322 778
66 53
716 883
350 574
649 248
132 176
118 672
468 407
235 817
880 895
458 583
2 616
556 896
387 20
869 244
501 547
800 671
714 679
304 315
565 106
900 681
490 90
893 275
757 851
403 299
556 675
219 387
779 871
482 893
100 700
174 336
291 404
348 662
865 292
404 672
370 391
946 433
773 191
661 591
608 404
767 437
272 114
474 148
604 230
314 927
562 514
889 594
926 397
341 802
56 490
660 381
395 904
856 145
205 541
648 39
482 344
883 373
177 4
372 582
701 416
490 69
501 146
608 149
165 325
934 861
274 663
877 948
844 336
372 161
245 776
636 168
873 554
784 822
837 564
325 655
472 205
114 424
665 136
810 598
204 713
885 856
796 901
229 329
708 807
907 849
396 59
340 234
491 296
92 215
916 436
717 634
974 632
683 950
286 901
545 749
975 360
234 829
237 575
840 153
437 819
350 955
95 203
558 234
889 350
282 289
247 947
156 861
982 44
527 894
859 569
87 392
676 750
401 724
150 560
376 353
926 319
795 971
559 927
119 865
287 650
248 118
469 795
125 253
633 292
739 182
572 130
387 288
350 145
389 460
697 415
75 107
85 8
638 22
568 46
416 811
92 353
399 103
130 537
790 230
278 385
632 949
184 635
66 506
145 286
213 180
485 959
479 493
255 297
882 120
437 828
131 225
663 904
557 592
86 336
552 433
302 705
546 374
822 678
21 179
476 909
588 887
730 244
832 886
779 906
869 735
615 480
873 193
380 650
783 981
183 802
903 240
85 939
838 689
163 270
220 402
862 961
370 259
452 714
62 291
959 563
818 645
444 543
201 25
594 708
346 592
219 615
352 679
618 556
540 749
763 500
389 284
625 957
874 764
674 442
677 721
470 857
1 345
220 688
646 956
432 900
722 944
897 744
84 384
528 641
711 293
52 361
16 890
770 834
56 417
330 768
385 542
653 55
448 757
488 802
659 893
474 768
196 632
424 927
223 273
406 787
829 730
201 699
155 68
671 663
675 336
751 792
87 877
473 502
241 114
582 707
61 711
869 165
300 795
360 734
693 878
357 401
51 794
983 189
380 943
590 653
937 797
649 631
868 268
186 267
935 610
583 347
959 436
62 516
86 800
863 960
331 240
803 815
883 307
442 833
346 419
975 958
407 157
690 164
528 279
161 548
840 521
621 675
143 647
378 16
307 476
170 828
561 100
564 378
86 601
33 246
380 894
159 850
352 902
127 836
681 245
185 307
132 238
650 921
571 407
209 2
923 970
302 730
943 584
875 315
24 806
803 839
355 453
720 845
612 843
670 443
78 721
155 308
181 240
122 972
618 970
32 57
396 71
70 106
660 126
474 9
365 347
112 705
174 707
76 672
761 622
650 202
637 313
543 798
796 872
566 352
34 924
509 567
509 529
69 791
735 765
217 484
632 540
425 610
798 791
782 550
469 318
213 95
607 898
247 395
719 708
843 749
851 436
10 124
505 10
436 13
142 906
52 633
92 107
937 783
517 198
350 724
665 312
578 468
797 960
186 892
110 116
526 812
102 601
657 963
969 681
658 412
783 626
945 769
863 542
76 380
155 253
520 930
850 663
45 801
875 10
320 386
438 953
50 249
764 809
454 934
344 934
156 495
357 614
354 928
794 645
572 52
562 723
172 574
581 859
103 124
514 634
566 863
475 509
562 793
262 6
464 841
601 965
125 373
540 2
897 293
313 245
238 826
573 34
177 806
716 810
98 975
193 630
483 506
232 613
491 146
69 712
912 332
203 378
201 576
74 734
427 812
184 370
685 441
98 958
319 620
479 580
527 582
859 817
436 392
717 466
732 928
95 245
480 189
209 96
146 302
603 251
677 592
788 949
772 356
648 511
546 756
459 696
961 872
118 530
600 269
293 120
671 30
206 180
144 761
252 378
324 799
322 202
574 614
676 866
99 25
483 812
942 368
121 978
68 242
820 31
821 834
454 885
735 859
99 796
540 347
313 901
135 92
377 981
817 592
430 183
70 769
125 80
880 401
211 499
474 149
239 216
77 792
207 921
98 808
209 875
728 229
799 335
86 46
343 707
91 465
917 776
204 234
958 569
39 886
47 945
835 856
965 795
507 180
143 450
458 839
576 856
594 347
460 787
45 70
249 493
971 763
447 141
88 813
895 610
557 626
238 2
521 825
723 725
583 429
102 904
614 607
204 950
364 684
310 253
575 943
60 725
186 520
540 20
261 90
559 359
687 711
682 32
194 111
31 222
639 53
313 136
524 554
860 728
648 144
848 581
1 908
575 562
483 384
552 300
141 146
566 622
201 368
231 229
583 886
189 750
249 502
582 126
30 486
323 376
660 492
553 750
666 750
579 140
95 644
866 936
33 295
579 317
869 429
64 583
794 188
946 391
86 516
451 137
470 935
578 737
932 3
145 695
554 375
238 244
366 425
96 360
353 639
695 276
357 900
764 68
250 123
840 418
503 906
198 235
442 210
665 801
896 118
901 115
741 441
924 719
564 444
817 812
177 570
490 246
271 848
398 584
664 639
419 709
133 414
576 283
310 250
561 457
194 658
957 295
863 112
15 521
569 377
237 795
291 328
194 412
58 910
485 696
635 607
65 938
112 613
102 369
963 913
855 344
245 684
767 956
710 676
700 753
954 692
132 723
60 272
6 188
615 941
746 812
600 687
88 398
894 305
161 915
110 719
731 943
282 473
257 582
119 979
389 349
155 189
908 853
880 872
142 112
235 446
703 43
933 486
458 947
201 611
267 789
792 549
773 525
226 801
888 36
524 645
67 818
835 393
746 441
159 185
698 752
453 412
310 608
259 910
98 272
577 888
744 845
29 168
411 14
584 140
105 418
342 394
673 243
716 953
330 537
926 816
93 495
646 153
225 147
208 949
63 663
523 964
686 878
339 151
893 708
837 695
602 787
640 371
345 252
92 632
608 129
646 787
261 231
927 619
261 163
332 481
603 10
322 641
247 968
658 807
237 455
517 602
517 21
96 542
811 376
812 983
355 753
617 230
581 445
820 506
159 765
71 64
860 414
720 676
402 303
732 122
208 610
27 166
444 358
31 244
177 184
486 898
451 124
785 313
271 649
899 679
101 853
645 733
903 802
66 871
26 918
447 456
730 756
519 56
802 370
52 85
794 923
201 415
2 363
22 382
149 931
152 611
814 506
852 971
174 334
88 865
656 83
36 299
610 570
829 849
973 588
479 968
318 949
642 878
671 548
895 640
178 942
506 327
33 872
92 808
751 124
679 318
572 724
904 487
575 377
7 107
335 622
410 230
193 542
817 832
341 792
784 808
111 536
38 840
411 695
115 16
5 748
264 917
407 77
788 270
582 163
677 980
824 173
218 324
132 607
629 519
978 619
445 358
706 666
317 742
121 477
545 715
765 626
362 913
472 316
770 424
534 49
627 593
819 258
127 300
619 244
68 195
432 628
549 694
822 508
623 78
125 795
509 634
821 554
700 83
558 700
498 694
17 445
800 719
196 175
417 583
159 880
4 814
822 655
956 783
938 782
280 653
693 168
751 371
464 889
981 881
307 613
638 967
725 492
659 574
289 319
517 548
113 19
53 179
608 614
318 980
345 530
321 78
523 140
233 252
420 350
896 601
900 152
386 440
696 348
150 778
9 358
282 957
907 198
239 349
323 322
861 765
95 522
961 476
699 176
573 671
425 502
409 432
465 34
618 565
728 959
162 601
110 771
91 446
602 322
755 500
791 839
100 678
276 270
282 885
248 8
735 658
322 137
187 492
896 299
441 391
153 59
120 66
191 441
653 382
385 950
213 908
242 522
469 626
92 755
415 141
111 187
640 856
22 279
590 949
528 862
673 283
293 335
820 478
659 878
90 66
268 605
661 810
756 563
888 844
42 18
212 384
540 583
983 754
720 543
497 821
465 798
946 666
780 933
402 335
566 306
967 816
959 554
292 834
938 54
940 854
152 639
706 108
524 21
691 392
765 466
838 488
770 178
859 21
36 335
620 815
28 148
226 983
634 30
638 723
833 662
405 875
789 248
234 772
646 378
564 179
462 69
185 77
515 173
557 293
474 937
43 979
203 736
122 355
735 534
296 168
408 866
116 851
586 671
736 758
474 405
882 310
590 127
637 354
225 314
778 77
227 705
926 823
301 133
139 246
106 914
420 109
491 952
35 402
489 779
571 235
919 443
779 861
116 625
45 821
687 250
122 754
878 315
289 694
24 133
915 742
290 658
399 116
37 876
702 802
131 788
913 246
299 919
670 209
239 157
965 570
289 362
384 424
57 246
884 891
204 520
722 183
264 611
389 682
749 200
488 524
505 690
641 781
821 252
163 20
309 244
38 565
573 22
205 220
11 913
481 486
706 12
923 319
428 833
250 301
27 738
235 390
833 306
937 352
294 274
132 457
150 790
390 619
247 861
176 445
214 528
929 644
553 382
88 875
941 359
679 799
60 827
618 702
461 970
761 8
445 783
282 403
589 676
820 688
582 563
472 915
788 921
476 939
741 489
576 974
793 376
79 224
281 89
101 51
268 292
749 285
453 315
185 232
395 157
520 133
439 679
336 583
184 402
525 363
364 924
375 400
72 524
571 911
733 148
739 542
111 783
477 470
264 648
943 455
800 63
340 293
95 639
91 758
374 232
475 736
439 772
225 99
463 866
836 581
580 625
621 367
341 258
696 826
626 634
331 55
19 741
212 17
711 193
345 919
732 370
73 384
550 914
221 914
440 306
630 909
719 628
764 483
444 252
410 489
804 507
431 353
895 630
201 606
625 964
510 318
682 23
307 460
222 825
667 361
479 768
850 660
456 562
637 966
672 694
35 272
145 356
767 914
533 763
509 553
789 28
111 341
403 388
385 657
868 112
155 743
193 147
517 176
155 358
286 126
640 309
608 232
58 787
917 269
311 18
48 417
705 248
742 167
320 26
357 395
565 161
159 976
290 468
430 18
288 706
566 876
671 538
739 9
867 348
703 279
338 841
241 931
67 404
749 875
1 610
879 123
790 761
203 49
223 808
422 328
649 276
304 582
181 664
64 398
11 483
490 524
507 80
533 516
643 393
555 539
683 53
426 896
182 846
445 453
193 148
835 709
96 626
820 250
251 410
969 731
380 305
861 605
203 645
613 370
237 49
322 246
12 721
677 544
880 526
203 530
274 620
402 709
226 327
667 96
682 70
786 939
19 904
531 103
914 494
58 721
954 252
564 756
646 734
740 279
324 492
669 781
321 380
836 248
780 317
693 204
803 497
660 334
551 297
422 521
438 970
868 553
961 570
304 734
728 859
233 553
414 630
509 310
975 660
475 497
80 148
561 333
432 684
743 247
50 385
137 412
487 814
471 976
555 875
628 419
587 7
187 175
462 34
249 699
707 139
121 108
319 524
431 523
952 354
74 705
18 562
113 173
97 235
460 9
443 963
830 557
524 872
501 270
946 832
743 413
531 806
158 29
879 176
935 56
847 426
351 433
445 812
502 232
964 536
233 530
809 354
592 103
311 121
277 526
225 248
923 588
359 390
396 140
698 937
99 149
590 129
385 490
388 348
756 777
278 733
193 466
209 698
484 482
854 737
13 970
705 832
731 733
273 594
73 269
398 753
489 531
576 207
480 846
409 787
39 461
469 36
155 291
31 396
953 795
74 347
972 542
809 900
644 664
25 803
649 742
469 834
159 529
538 54
79 202
228 282
85 255
538 490
975 407
921 949
75 972
810 60
269 621
100 391
851 713
212 758
621 547
196 37
671 202
571 953
163 180
464 455
885 845
573 182
439 835
858 286
188 705
541 301
342 972
796 636
361 243
90 979
840 863
290 17
345 449
934 275
737 949
239 246
811 100
260 648
314 419
525 388
233 374
874 5
123 806
768 305
92 431
483 816
826 619
682 276
42 737
848 564
741 191
523 569
389 738
764 774
286 838
710 787
217 491
193 5
413 186
594 325
961 58
171 28
544 978
155 486
877 629
359 638
720 32
364 523
454 854
938 123
17 15
776 964
482 7
190 812
928 827
780 820
931 678
585 340
338 288
15 468
654 167
951 374
112 8
682 396
421 504
884 94
188 469
595 783
707 754
227 297
844 930
79 586
47 18
286 499
186 574
274 188
74 476
771 334
496 971
151 901
596 313
811 154
689 327
266 839
674 501
305 753
796 903
517 601
402 157
848 288
942 979
132 54
902 13
101 257
122 134
31 927
527 570
52 304
489 634
897 533
471 318
399 13
203 459
4 8
292 391
577 269
867 906
357 557
908 179
251 621
216 569
608 42
699 197
368 153
42 576
120 683
887 902
874 360
729 176
515 81
538 481
660 216
642 959
356 46
430 254
366 505
667 650
82 797
818 966
917 120
15 841
749 734
980 536
880 147
511 672
150 849
259 878
242 471
423 622
941 87
504 55
410 922
917 353
825 134
911 382
625 30
150 537
681 471
648 542
481 742
610 834
357 598
800 126
431 407
158 978
840 5
72 694
531 254
53 147
808 409
754 461
420 284
706 163
853 851
940 32
686 452
410 762
525 634
87 73
269 38
811 552
587 178
915 89
455 112
183 111
773 726
98 472
320 808
699 830
194 506
517 382
752 552
676 585
918 300
577 366
152 922
122 735
359 613
201 156
570 839
74 160
683 947
261 30
209 357
174 714
138 811
923 622
838 733
289 333
119 81
55 136
238 152
572 504
920 857
410 343
617 958
851 382
965 33
290 298
399 655
255 394
57 765
167 309
941 200
209 188
977 382
502 369
195 481
821 707
660 93
401 181
790 370
78 430
134 140
279 678
509 171
66 827
709 189
656 455
968 505
808 931
492 436
292 563
261 7
600 740
529 149
955 49
17 118
272 591
159 508
886 382
261 770
596 494
463 762
462 374
193 664
415 546
752 607
788 418
935 269
214 197
974 461
174 537
43 864
941 49
100 791
9 619
947 845
396 823
860 460
458 668
205 374
480 347
668 228
192 154
550 308
726 603
862 871
198 842
513 782
454 181
421 413
367 925
481 188
616 348
351 687
531 277
660 954
735 390
601 755
552 238
888 369
658 858
355 385
247 40
760 611
912 476
451 816
896 550
553 523
91 964
382 3
646 630
39 284
884 338
99 570
923 689
282 563
62 536
268 399
63 85
677 490
253 317
249 551
292 5
809 245
629 827
976 285
337 191
247 259
212 295
174 474
286 575
800 471
487 106
967 677
551 700
588 599
720 632
311 152
239 925
427 777
47 536
746 164
160 719
361 655
251 504
180 514
824 219
127 848
504 562
438 773
479 630
25 795
742 375
48 663
119 122
946 223
699 24
432 819
475 967
471 498
309 467
534 660
141 959
774 135
99 547
50 560
323 852
470 206
551 883
686 919
132 451
646 220
387 272
320 360
601 137
836 363
580 502
930 240
509 423
953 81
572 75
975 333
612 498
705 560
741 263
868 401
758 591
374 78
450 480
378 901
752 720
785 278
715 597
57 245
147 554
304 828
267 978
824 664
409 10
373 505
525 460
225 139
124 945
561 892
711 947
91 111
838 240
898 222
76 505
477 565
439 681
958 60
724 423
589 641
953 540
49 157
409 480
162 920
381 805
789 152
22 579
738 624
705 963
868 265
445 925
490 134
48 745
802 478
380 777
770 641
426 428
342 568
627 930
773 927
650 154
485 970
618 93
263 669
819 683
32 695
824 692
159 860
915 607
807 405
256 405
294 816
854 548
882 536
542 279
727 663
86 718
158 75
568 238
489 875
176 353
661 176
111 611
204 202
668 345
778 124
262 933
304 972
667 459
726 756
216 723
912 757
908 243
666 675
972 199
719 373
59 627
888 100
390 611
562 400
374 41
448 784
446 831
729 385
32 607
342 6
34 847
366 855
43 464
903 419
94 434
853 53
857 1
893 94
512 174
570 419
879 415
737 434
794 555
172 139
762 832
735 664
512 931
195 625
108 777
604 134
692 390
946 897
205 887
835 106
339 913
873 758
488 906
123 550
200 30
527 163
73 939
917 554
644 790
919 449
903 523
462 386
500 881
615 519
670 525
47 407
652 36
234 766
935 12
539 751
559 102
249 314
528 406
547 969
195 828
34 12
644 418
735 958
383 789
697 641
423 386
484 22
887 164
137 749
870 361
982 770
158 181
778 498
215 619
655 905
521 956
763 179
539 112
116 106
478 881
869 47
241 372
856 695
225 204
472 128
113 687
225 576
20 173
479 701
509 409
888 114
762 801
63 73
176 713
484 559
322 414
213 546
324 430
328 276
774 312
741 864
78 526
758 715
101 31
559 910
926 562
629 562
379 931
967 884
267 400
509 316
899 748
700 139
612 552
21 950
223 26
118 506
742 863
586 284
800 300
840 286
275 8
460 436
578 118
437 107
510 659
154 928
277 39
649 70
4 930
869 389
600 73
892 787
856 243
198 858
533 854
722 747
491 455
772 627
702 392
81 692
632 452
226 311
50 233
910 14
752 334
213 187
537 713
410 550
205 406
478 12
192 378
84 131
374 534
488 150
857 923
253 394
75 317
275 280
348 418
94 544
73 831
351 472
382 765
338 498
264 401
302 756
138 637
485 247
235 563
142 925
88 314
585 787
198 576
746 952
387 928
542 628
652 423
192 971
891 44
157 172
31 497
773 982
740 194
686 150
45 778
85 856
513 457
782 491
821 15
251 49
110 60
294 129
117 349
522 569
483 200
637 396
12 36
33 358
785 492
264 358
823 172
583 864
847 449
534 746
555 108
385 417
224 759
244 592
778 136
944 144
46 944
119 743
774 943
532 308
398 583
720 802
422 739
79 381
156 411
933 139
710 971
503 315
660 494
971 518
734 230
936 910
612 316
45 326
207 567
79 482
192 758
979 816
191 179
177 139
389 903
286 200
891 189
399 491
182 914
76 241
422 568
813 947
480 649
700 689
7 150
800 194
341 243
213 686
17 738
860 356
110 383
402 588
221 243
884 949
111 816
831 878
850 846
926 700
174 315
527 459
584 563
34 470
88 767
587 508
22 641
370 414
813 32
542 614
121 432
585 910
617 957
597 845
661 343
159 774
442 425
447 591
86 258
140 16
730 487
52 783
136 684
310 352
644 640
24 521
951 20
601 114
431 963
982 689
286 66
181 168
110 262
790 947
130 141
242 902
151 911
832 799
482 290
781 532
156 748
268 937
747 723
254 108
608 379
293 959
863 898
61 894
975 963
138 761
253 21
570 382
90 854
254 688
699 94
910 692
189 932
760 533
248 714
835 197
265 762
862 617
820 364
822 408
551 634
199 929
954 471
602 315
556 204
186 547
575 730
209 386
402 175
68 313
509 912
837 768
701 457
877 286
130 132
294 5
294 718
261 702
426 328
862 669
111 778
482 659
562 3
231 353
110 905
269 900
159 933
588 678
19 238
352 326
499 537
227 115
249 962
229 673
729 328
658 948
473 284
456 740
293 878
611 334
234 60
152 146
631 10
238 172
796 125
45 313
357 231
820 830
752 732
914 144
717 327
184 397
129 681
314 881
628 514
649 434
944 851
9 83
317 634
449 487
959 902
214 451
107 913
399 696
142 920
220 797
665 325
65 657
99 161
581 110
85 137
250 702
108 849
509 67
678 347
93 345
3 81
900 737
21 845
540 851
796 946
773 829
711 655
507 405
556 329
659 285
448 166
130 116
956 643
719 865
740 237
595 175
926 266
448 490
304 431
462 676
597 854
925 770
816 806
472 480
199 328
738 588
679 834
849 537
571 526
640 865
975 77
278 919
228 710
923 423
432 451
775 959
822 879
951 478
17 20
738 148
491 928
682 632
312 360
648 677
703 217
652 861
368 325
672 296
194 507
430 272
819 315
217 509
294 902
739 320
598 415
465 971
706 523
599 66
656 918
48 183
624 923
589 477
21 81
512 476
406 224
979 725
856 937
632 105
654 85
269 664
237 142
203 767
347 498
665 422
958 182
726 492
409 45
753 301
608 960
86 758
728 655
856 692
697 424
290 622
720 877
862 696
792 404
78 753
310 973
598 979
602 503
859 594
452 4
569 230
808 618
646 510
910 371
956 111
696 440
960 677
545 148
638 596
449 778
855 205
322 795
879 849
57 555
92 905
9 777
877 806
324 954
860 175
830 826
700 865
720 538
132 245
775 651
6 145
617 595
300 809
675 516
643 611
142 287
219 923
20 21
166 28
935 609
208 802
851 206
137 343
138 248
858 766
803 742
515 912
274 437
664 96
738 59
350 301
133 931
830 539
457 890
356 60
57 488
817 969
712 919
564 58
896 793
469 737
456 256
455 391
366 493
758 356
589 752
546 258
659 892
710 529
863 769
517 297
959 306
779 709
66 981
92 368
432 829
821 232
217 423
71 195
570 663
527 769
442 516
739 486
26 650
320 830
27 930
860 312
263 392
863 14
451 750
677 36
340 116
62 531
457 65
294 831
426 621
902 554
212 875
980 544
428 933
56 129
19 297
74 218
628 18
858 838
145 635
79 111
867 942
635 957
102 260
394 427
430 688
713 308
306 834
880 926
264 925
720 520
837 452
313 345
688 443
361 964
394 570
196 889
659 10
722 586
682 749
702 966
387 601
207 731
83 275
854 123
656 611
287 357
493 230
239 331
701 951
648 134
620 979
962 367
780 298
304 499
545 683
342 70
175 783
200 526
273 424
130 814
848 394
746 16
133 619
511 928
100 47
102 319
265 521
633 225
267 797
490 679
641 8
640 324
164 281
613 721
977 955
597 498
617 648
228 331
48 977
982 761
90 718
877 930
284 567
15 347
916 117
513 711
684 871
645 635
961 344
207 266
852 544
420 778
219 833
493 560
911 306
622 910
4 890
953 565
568 471
402 798
516 673
578 216
168 591
595 232
939 871
241 220
529 541
245 562
490 397
642 286
842 563
699 589
929 954
668 975
22 327
706 921
587 895
84 805
585 275
697 92
294 460
239 54
608 587
207 823
8 471
22 404
889 178
509 138
438 454
160 589
363 541
824 89
682 590
55 704
720 855
189 377
299 18
119 11
359 553
729 714
149 542
276 469
969 230
8 53
869 600
263 979
395 826
217 814
843 558
753 570
740 569
57 584
41 902
650 828
575 833
45 950
525 567
287 708
550 124
156 416
94 72
612 571
357 761
316 533
797 812
512 192
675 925
267 920
398 550
672 684
511 746
458 482
545 434
313 591
869 80
100 819
11 415
267 34
340 628
655 106
91 592
436 970
882 893
352 976
315 139
369 662
320 540
857 9
599 471
843 521
843 433
366 400
560 254
500 737
525 101
84 811
486 574
35 594
576 544
146 979
95 829
826 903
773 193
974 393
795 124
427 627
119 89
393 890
708 554
742 13
4 580
96 429
19 322
833 676
210 711
138 731
170 41
50 937
513 263
215 940
92 679
509 591
19 308
170 901
686 707
86 955
927 531
842 147
155 218
698 297
679 505
774 756
958 304
154 618
156 173
737 890
818 11
656 664
29 443
571 354
535 197
840 279
365 900
579 887
834 405
304 253
340 94
323 254
307 856
35 544
627 611
247 248
731 66
264 656
102 5
925 891
982 628
841 352
752 496
808 744
145 892
274 386
628 469
963 308
591 574
426 140
961 68
651 893
868 565
748 772
677 757
87 666
770 175
155 148
185 808
313 487
831 94
800 954
650 191
529 265
395 190
470 795
309 407
899 724
23 526
937 124
310 384
60 245
577 5
885 708
762 606
264 93
887 815
527 452
604 876
417 126
473 361
260 237
899 56
332 879
545 757
280 306
535 759
101 491
102 60
33 78
547 492
382 694
74 719
326 692
493 188
789 895
586 187
774 408
333 200
758 230
201 654
462 585
174 87
911 96
965 105
288 726
127 925
951 208
185 484
444 588
223 356
23 822
667 665
137 73
482 369
156 872
251 560
485 569
378 613
962 197
145 505
648 950
257 138
555 111
974 809
319 161
597 258
207 335
338 929
368 560
475 832
376 563
968 791
951 604
272 798
97 292
6 926
351 556
728 472
303 313
303 713
90 144
635 945
621 761
334 828
425 96
226 454
834 787
387 936
357 203
909 270
198 650
162 491
165 467
720 577
367 38
68 972
461 29
98 825
462 270
238 252
481 806
726 833
749 353
251 124
654 904
804 651
730 169
718 977
442 630
202 843
934 80
862 396
462 196
651 898
464 436
51 261
125 652
921 943
314 496
958 498
119 359
746 962
230 243
732 548
456 802
32 641
101 121
458 711
535 11
974 537
868 625
557 485
319 584
355 232
101 742
450 118
604 91
786 82
806 827
587 980
40 816
635 890
686 874
555 176
193 854
181 183
127 784
40 650
772 347
511 433
208 537
249 11
9 945
245 816
803 437
676 606
733 80
716 40
23 532
600 352
406 568
722 857
959 457
64 569
247 299
853 887
512 114
884 59
756 723
667 136
740 834
724 516
211 683
603 765
782 619
835 958
362 837
165 453
899 886
287 715
169 898
385 717
208 355
437 981
906 595
399 854
905 892
922 418
503 227
322 621
489 350
518 117
843 846
171 335
193 54
493 532
442 386
846 631
775 823
208 839
579 687
564 172
958 117
470 749
513 634
951 683
701 426
883 938
275 419
828 776
882 677
946 476
122 305
819 461
894 68
642 155
538 367
830 186
617 801
98 713
153 765
102 939
486 636
237 398
731 595
365 433
273 653
403 441
736 345
209 506
464 910
86 501
72 505
606 801
19 572
57 753
847 706
921 191
557 302
25 933
264 555
862 686
979 548
321 676
195 501
63 330
867 871
98 867
403 842
558 770
575 928
724 494
211 149
193 610
789 718
697 55
657 467
215 272
707 718
92 656
331 137
349 554
463 639
882 68
339 192
835 521
982 797
162 578
145 77
550 753
936 165
863 191
546 567
919 978
482 563
941 312
653 248
912 804
587 863
329 265
537 295
133 606
983 21
98 515
542 560
190 574
853 358
874 224
857 168
822 799
452 118
28 5
24 242
885 859
583 440
102 385
735 191
69 653
895 561
454 756
552 755
535 47
331 725
151 716
957 377
632 939
471 41
247 934
359 809
30 347
451 111
768 352
20 611
167 104
135 673
668 457
962 948
373 936
488 531
675 265
197 378
783 487
652 568
453 347
950 523
241 845
205 863
258 900
278 213
228 605
961 853
128 881
283 948
289 567
415 324
128 883
916 449
215 981
866 417
408 227
601 705
411 421
412 301
982 956
87 166
749 315
192 976
952 767
807 169
829 977
538 821
321 139
743 762
745 239
304 777
357 386
161 55
514 692
548 795
58 872
578 55
852 738
392 518
52 464
501 141
364 492
165 330
98 973
594 834
217 325
693 203
706 747
500 606
581 659
290 777
473 129
551 394
424 949
497 685
961 562
852 92
336 749
98 900
844 750
696 690
354 801
953 788
274 910
149 157
531 433
262 130
854 391
33 700
42 371
435 673
112 498
728 258
782 963
428 640
951 328
307 881
783 928
273 833
326 981
239 801
310 819
974 684
702 529
604 644
116 9
564 555
246 358
818 607
156 26
656 408
141 149
587 358
661 719
442 955
102 221
224 806
226 287
706 424
136 619
447 425
286 246
930 391
396 626
236 881
249 731
917 48
96 164
811 24
775 619
511 790
598 510
267 706
971 441
633 263
909 684
342 98
43 341
820 165
440 689
775 71
562 881
320 588
597 872
732 827
911 553
823 236
474 400
19 101
88 43
743 462
874 523
376 626
379 750
257 357
249 776
746 467
26 517
813 103
264 861
618 855
485 385
88 299
658 907
51 275
219 381
535 51
311 973
266 232
202 361
817 253
69 498
722 420
346 319
399 299
221 727
661 938
646 365
940 253
201 113
559 869
11 844
84 654
960 570
52 58
680 824
625 678
289 140
974 702
810 423
276 706
753 423
800 681
457 816
217 617
764 501
209 47
805 224
143 835
241 762
594 819
475 326
566 368
483 344
290 487
322 435
748 494
159 370
217 159
329 930
439 40
733 756
452 216
916 897
173 631
719 842
405 713
669 108
743 165
528 410
45 357
712 28
472 918
309 434
662 949
310 734
519 596
351 486
559 331
229 518
910 932
214 497
911 405
490 723
857 137
535 948
536 846
42 853
662 690
884 425
226 780
71 187
465 346
938 619
728 43
466 766
160 11
659 798
896 444
456 793
327 14
493 215
113 134
968 542
411 908
338 741
212 897
445 828
85 40
855 233
493 899
470 73
643 969
933 309
183 954
622 756
127 753
667 258
778 348
501 216
57 977
670 667
736 218
621 364
587 978
252 134
470 440
127 306
143 569
768 16
22 954
59 684
534 254
648 607
528 603
502 306
711 816
312 639
52 467
236 490
33 749
644 897
974 411
170 520
680 864
598 23
673 793
184 175
110 978
351 795
165 819
167 60
831 918
346 430
408 205
58 361
596 914
818 31
907 879
529 208
268 60
17 622
568 522
173 124
524 494
950 771
789 25
386 870
759 799
65 890
48 35
965 530
837 749
107 381
787 495
241 899
330 468
224 191
867 240
647 555
209 709
941 703
970 639
933 245
33 450
305 530
37 713
197 178
456 2
148 771
310 790
666 791
773 81
883 621
778 108
357 691
659 681
307 77
608 607
254 222
858 44
4 724
155 439
266 158
804 453
187 461
925 414
499 335
8 179
51 57
100 43
763 766
506 295
532 434
162 78
953 297
476 504
665 75
385 341
512 173
44 353
941 237
173 440
463 345
564 661
160 24
141 90
548 494
824 111
208 962
149 575
42 212
316 923
816 281
86 439
446 306
836 289
587 555
396 693
164 906
951 766
385 363
590 799
68 22
792 636
922 567
463 981
586 496
673 593
339 14
463 153
105 797
513 136
110 847
177 694
807 376
190 454
91 224
747 10
871 685
218 372
939 631
473 605
185 741
699 786
476 60
259 692
627 466
722 145
962 109
263 325
174 303
675 947
624 596
432 453
716 60
267 25
312 842
974 669
224 60
404 365
423 3
745 398
690 834
841 931
492 614
308 875
214 512
535 500
21 41
921 384
575 791
63 121
581 342
138 603
86 513
216 544
447 416
953 791
680 398
883 594
482 453
630 376
703 484
198 918
121 646
431 362
202 876
291 792
642 982
383 759
420 323
295 593
561 379
521 861
800 314
260 109
473 81
218 833
935 460
294 476
645 460
553 944
924 611
872 436
266 126
638 202
947 300
198 888
604 795
425 187
515 976
552 870
646 719
764 57
584 793
965 613
233 655
128 461
307 934
951 381
699 179
175 81
316 143
23 757
816 117
670 766
538 457
409 958
251 418
529 319
342 607
108 279
537 791
409 328
37 905
721 371
99 419
617 532
172 864
852 341
194 808
374 913
251 697
801 750
507 275
6 909
23 742
458 270
519 880
611 787
958 186
877 1
18 397
970 126
263 10
662 333
773 267
946 51
351 238
522 582
802 663
393 592
906 981
137 124
92 315
365 115
93 729
122 930
888 330
578 209
580 512
943 335
621 141
362 746
401 746
952 902
184 59
865 983
383 816
394 533
860 398
99 424
100 887
444 916
563 44
800 330
393 469
703 952
70 918
255 193
551 488
256 130
513 713
369 850
666 152
483 259
127 793
219 659
860 387
751 545
572 157
882 656
42 270
940 593
261 597
647 810
337 247
963 327
377 296
267 313
832 663
159 641
697 42
952 798
6 381
590 844
541 105
852 500
798 872
178 593
25 105
217 909
325 404
736 720
312 322
682 193
203 639
739 455
632 704
337 462
264 122
525 531
947 246
911 952
795 798
589 600
219 405
75 424
262 689
155 934
558 429
617 663
928 966
926 305
138 750
218 807
675 115
237 489
418 591
474 656
421 613
775 675
868 458
934 922
710 102
27 414
87 694
182 399
202 140
973 358
975 820
410 414
192 549
286 505
894 146
288 445
193 115
540 293
766 453
7 321
509 757
228 306
782 886
415 163
203 545
311 25
43 591
354 248
579 410
581 418
693 723
804 970
905 949
91 353
492 14
96 153
422 486
557 513
796 118
63 448
857 64
589 327
587 319
331 281
892 562
722 212
207 442
724 272
870 787
155 23
84 183
251 724
581 576
513 53
224 754
788 610
717 463
534 816
96 487
555 643
831 652
264 723
227 892
581 672
161 29
266 623
362 925
514 14
829 220
977 518
240 684
788 689
32 115
784 264
197 402
310 4
511 374
968 616
99 742
432 178
282 864
386 562
418 688
243 721
735 104
476 126
195 655
614 875
278 940
455 689
45 442
780 947
968 211
774 903
516 568
872 954
779 294
818 256
912 683
507 105
217 17
342 749
496 2
237 430
40 75
115 657
830 534
339 546
528 288
602 168
804 437
73 133
127 533
549 306
576 631
860 906
632 510
581 593
762 140
249 273
530 898
965 902
503 971
141 324
141 783
769 721
476 117
648 926
439 558
465 748
843 653
323 570
709 279
553 519
535 915
900 756
291 73
969 180
239 587
617 738
262 956
249 115
325 503
33 388
895 236
287 539
571 554
878 922
58 388
920 908
633 981
407 345
241 352
228 747
856 180
286 140
459 425
1 108
899 973
934 555
499 817
564 829
947 610
411 659
214 39
694 136
860 516
435 237
42 555
292 255
661 935
132 254
320 771
724 218
211 393
47 56
968 471
940 395
844 57
836 727
701 384
238 191
501 895
284 814
121 500
51 375
786 565
966 762
767 672
218 825
917 531
184 649
847 141
388 873
724 3
429 718
176 349
6 534
567 599
672 334
148 252
97 614
22 104
155 831
25 674
670 679
2 878
840 623
32 700
911 204
290 93
935 687
590 352
683 552
27 473
265 476
912 769
306 390
89 814
181 229
148 872
772 277
719 613
608 369
463 634
45 107
104 910
602 462
810 97
416 628
609 400
439 424
973 613
521 124
61 939
188 533
858 103
282 101
326 494
321 966
908 318
446 402
842 125
103 281
496 495
699 566
646 654
494 747
577 181
558 145
482 494
944 549
228 486
578 832
729 114
808 421
804 612
649 816
87 915
229 783
845 806
83 886
462 771
339 791
598 769
931 635
532 588
869 981
395 944
257 536
511 61
918 343
42 676
642 287
596 696
794 960
338 856
759 400
270 891
642 365
273 278
22 652
644 803
424 358
662 453
597 210
155 972
447 252
339 472
432 523
850 126
271 105
110 165
608 111
95 891
937 546
26 738
21 124
408 965
112 713
231 453
268 337
219 584
860 762
509 351
703 596
497 945
496 903
897 521
135 643
135 846
615 437
730 673
31 137
126 931
237 371
864 807
421 270
919 3
540 212
816 954
439 648
247 161
968 461
843 157
236 968
511 892
934 355
167 718
884 108
435 23
316 894
958 437
338 738
780 871
211 817
451 171
911 111
182 915
706 799
773 181
460 970
22 933
608 892
780 425
600 714
205 343
452 842
894 929
695 197
623 664
755 563
240 927
350 899
73 191
249 641
749 584
362 532
236 491
182 230
111 708
366 180
258 270
42 227
79 154
579 792
804 563
416 303
456 769
971 543
789 866
403 27
86 160
78 844
7 30
669 823
449 297
484 547
675 765
32 617
895 30
680 752
588 630
699 605
370 663
719 588
759 176
504 636
357 38
267 383
565 60
213 663
90 867
74 37
239 70
313 379
557 221
740 579
407 449
579 711
691 586
50 980
549 616
489 263
785 578
880 523
719 664
610 179
340 643
280 881
601 886
778 109
466 347
138 729
717 299
603 464
307 527
312 431
736 976
784 775
38 118
258 696
824 811
758 607
445 933
873 945
447 348
319 619
982 313
250 878
514 755
550 29
211 56
387 670
461 443
745 618
339 834
673 115
710 471
836 283
605 547
532 178
751 814
384 392
262 978
169 757
701 240
183 799
558 28
961 312
320 416
671 775
250 218
213 982
469 1
949 279
74 627
465 979
68 505
785 891
477 961
313 928
188 20
777 414
743 863
208 510
546 623
743 624
673 845
340 900
736 106
547 301
310 921
225 891
4 41
978 876
79 281
887 476
946 837
772 400
640 460
234 751
218 232
697 891
185 481
285 793
885 908
852 465
198 913
484 875
135 283
292 371
699 789
42 16
459 738
170 6
388 81
858 133
282 169
173 757
637 566
800 294
858 773
289 518
107 763
271 260
865 861
239 270
187 841
646 464
243 318
119 879
502 537
566 214
254 308
271 457
743 634
538 117
633 448
35 521
465 470
817 588
935 695
268 669
407 455
764 474
74 899
642 804
198 328
114 384
329 908
71 218
707 429
946 719
715 645
472 890
272 296
71 144
644 556
332 785
507 548
715 90
372 69
941 884
46 258
526 471
99 319
402 254
716 815
166 298
97 861
481 28
131 502
645 902
903 731
740 975
509 936
559 576
943 737
303 715
590 756
342 882
201 638
951 719
628 616
907 248
45 768
247 452
48 646
442 187
621 2
786 908
37 81
934 161
701 170
774 288
45 728
18 335
438 50
231 938
752 206
662 405
686 543
24 215
618 305
962 624
621 910
911 689
256 882
587 156
145 385
628 960
976 694
472 744
884 489
800 585
874 29
760 356
12 841
35 430
751 108
109 737
311 766
42 971
593 713
809 471
110 908
482 340
120 838
63 110
121 243
203 307
732 981
237 604
808 424
41 191
125 120
650 960
6 177
389 311
774 729
590 256
323 760
468 58
434 118
73 449
200 727
6 68
20 737
956 983
665 947
758 47
389 344
190 523
763 455
673 392
820 540
305 182
968 370
930 537
215 59
199 715
493 276
311 114
97 734
975 846
496 807
303 700
463 118
307 604
357 293
508 861
215 843
879 830
290 382
310 427
23 238
297 939
323 913
410 586
470 28
774 974
235 140
879 346
241 975
40 807
511 299
739 532
167 181
800 298
411 847
786 664
159 474
217 327
236 626
274 646
609 870
331 507
759 609
387 624
597 433
542 153
104 933
121 777
602 594
52 397
380 479
951 677
92 968
184 743
901 875
665 754
115 295
831 750
615 760
564 601
835 62
820 455
92 814
233 181
450 853
960 183
962 762
779 412
194 528
101 468
431 877
858 571
470 118
471 124
72 245
590 569
174 333
939 876
888 932
633 26
778 216
264 915
817 676
927 825
734 594
241 849
919 548
24 126
686 520
373 538
264 855
818 271
360 54
587 809
79 510
498 139
608 268
12 283
205 327
294 599
409 476
888 55
720 478
77 375
823 235
413 922
837 798
179 949
590 670
559 876
862 410
974 624
576 47
276 104
874 883
598 793
158 982
201 178
400 981
420 835
524 144
491 898
850 926
651 83
724 635
447 545
359 899
894 609
417 963
207 59
468 945
534 817
866 126
260 110
82 122
135 132
561 757
874 238
531 798
14 771
24 973
882 158
941 598
735 270
920 959
98 327
151 435
29 562
45 1
72 630
491 297
242 331
45 861
190 709
691 416
323 797
231 573
342 95
417 193
398 790
662 611
735 107
867 630
744 428
307 733
785 447
84 491
249 475
422 118
75 148
228 607
597 903
697 280
855 89
843 405
732 658
931 441
628 547
699 949
370 440
793 440
535 379
636 950
966 536
753 983
681 453
921 771
60 345
254 281
596 635
553 565
743 756
194 637
743 605
251 628
160 890
959 761
291 535
293 690
741 84
539 678
26 799
852 860
616 957
820 233
214 491
17 877
659 586
54 863
827 221
974 683
373 163
328 292
307 534
207 312
45 120
120 508
935 440
269 597
502 486
270 871
822 336
783 970
943 136
934 20
935 414
576 720
629 842
239 714
813 680
3 607
390 635
700 605
240 407
85 18
234 221
859 128
199 419
473 747
661 378
95 722
459 951
759 828
764 617
137 611
249 281
601 44
602 162
982 371
661 730
894 906
326 503
633 16
185 879
351 26
490 187
367 526
206 354
83 875
523 909
653 854
877 610
876 494
90 353
917 929
184 236
259 756
102 511
387 597
484 108
160 95
767 788
671 676
399 526
847 794
386 391
703 907
615 789
528 842
926 124
269 356
796 560
570 487
470 96
366 507
293 902
207 488
961 500
49 964
710 497
488 176
251 508
324 478
354 492
608 193
521 611
646 807
473 7
686 460
577 663
409 466
137 757
317 660
67 116
160 231
895 753
625 794
698 901
509 823
913 756
975 155
899 583
773 566
332 65
192 648
338 427
929 108
68 157
337 962
289 438
127 103
660 675
274 418
40 33
349 41
204 748
353 721
955 963
428 927
729 878
362 180
325 64
110 942
848 978
937 568
211 474
447 143
687 374
926 16
603 891
196 307
892 944
750 563
641 13
128 563
571 281
735 79
702 694
132 237
888 974
787 614
337 86
462 768
391 689
565 742
358 684
306 117
772 787
125 730
543 315
682 578
331 71
629 180
265 467
796 395
63 201
46 324
840 672
758 300
962 365
785 564
73 957
699 42
890 606
68 826
186 817
310 20
501 753
31 951
704 60
513 490
267 134
941 502
785 370
842 971
883 627
719 963
351 339
726 760
923 851
581 851
804 620
273 665
551 74
888 152
274 776
387 277
135 642
317 678
810 150
897 11
565 90
522 851
507 174
715 392
660 706
644 335
495 672
314 457
746 956
962 768
446 202
212 713
384 727
621 584
234 272
472 182
473 296
364 329
198 316
442 399
442 367
405 180
808 864
393 47
194 351
379 623
831 417
415 432
881 191
240 1
759 887
133 21
955 81
448 478
709 476
12 60
32 706
531 309
346 888
737 3
438 343
520 34
632 657
616 133
248 635
855 386
586 303
15 715
401 675
440 898
511 34
24 780
349 825
831 149
852 561
255 759

844 5449
618 831
46 779
539 240
89 11
489 686
168 334
729 263
440 422
810 237
460 25
756 599
208 663
491 419
466 496
139 474
633 747
358 375
83 462
545 496
128 617
697 693
109 660
96 611
192 570
238 667
541 508
130 284
653 738
140 443
662 484
305 458
414 521
625 171
613 650
517 749
402 49
664 356
60 693
223 155
25 384
282 459
281 609
318 229
546 738
429 414
351 504
106 61
114 560
397 746
514 68
383 28
662 547
423 675
529 811
756 825
161 256
405 512
762 698
621 117
176 638
543 302
195 436
693 349
513 260
731 717
109 358
109 764
844 420
40 29
497 633
406 838
750 676
425 709
27 194
667 247
833 793
513 181
18 310
546 768
665 498
404 177
740 175
323 74
116 705
93 385
740 254
304 353
688 585
765 791
345 558
605 237
328 359
74 442
58 807
763 514
755 426
591 485
540 710
558 29
10 104
805 535
786 761
476 11
471 427
553 40
187 819
759 564
91 424
226 255
778 686
598 488
564 115
602 426
481 271
110 41
811 766
511 161
629 462
404 154
619 651
147 800
676 414
777 624
47 148
357 450
527 597
270 779
732 54
590 321
132 748
24 493
595 451
575 674
491 479
299 280
372 159
362 450
820 206
195 814
767 540
308 26
775 487
607 37
223 562
586 163
233 607
724 705
523 394
284 3
565 707
430 783
162 269
90 350
532 297
123 709
663 806
149 227
815 783
396 612
516 710
304 561
304 70
92 417
546 217
222 277
473 260
130 644
319 310
123 267
486 301
27 644
243 831
521 711
93 26
750 121
842 720
455 479
6 196
678 746
635 404
267 808
418 171
786 805
828 64
736 717
619 133
729 610
540 129
279 111
320 447
323 391
357 417
123 617
306 596
342 693
570 50
35 26
19 223
241 328
95 637
205 674
593 777
6 486
389 486
301 260
46 370
212 161
505 409
566 531
179 774
293 538
592 378
371 110
23 300
812 298
66 794
597 818
66 388
528 359
285 166
782 668
487 629
92 318
535 778
661 363
61 74
57 404
464 343
444 374
598 275
377 397
50 477
820 220
459 271
607 67
111 46
31 126
261 840
483 399
190 513
380 518
513 503
604 682
608 819
329 227
661 226
22 777
39 146
8 574
355 713
463 104
717 537
527 68
704 261
617 359
400 397
379 818
475 672
494 252
116 268
8 653
209 711
48 702
566 481
214 15
314 629
198 341
161 721
756 393
269 592
595 470
778 215
719 632
724 128
653 202
395 531
124 248
489 163
159 811
808 739
606 826
700 171
131 736
776 342
20 339
155 793
65 206
282 380
158 156
362 635
80 583
429 40
590 131
168 38
439 806
760 628
812 393
464 620
102 36
800 443
69 671
187 570
696 658
531 134
725 25
358 415
458 717
292 516
828 9
242 100
405 227
687 779
409 736
798 266
800 101
196 790
400 313
584 796
549 790
820 665
454 529
309 327
572 473
836 767
168 578
318 843
582 258
526 226
83 764
300 398
121 356
579 191
286 500
621 132
490 646
87 808
201 841
71 690
12 310
27 487
613 710
459 122
594 422
8 605
441 668
806 668
173 94
619 20
647 105
412 537
549 387
296 429
593 681
323 271
633 370
83 474
519 525
509 60
744 115
567 628
824 334
808 93
2 140
148 211
3 253
442 327
305 80
243 394
352 12
389 98
597 717
191 609
430 657
676 220
489 526
237 589
57 287
476 573
664 294
207 832
461 5
409 492
816 646
230 628
107 792
747 225
90 740
676 35
676 760
145 474
364 234
331 404
39 375
296 687
812 488
704 737
83 831
154 718
728 125
637 29
833 757
396 762
751 21
459 535
298 334
834 707
555 470
411 101
358 428
782 713
507 425
307 52
787 254
643 5
563 703
352 448
760 445
335 628
47 515
109 238
143 715
93 396
311 32
539 683
268 392
500 434
447 385
406 817
89 766
92 270
325 766
524 792
559 452
456 568
236 609
274 44
584 366
508 105
208 227
408 368
597 322
111 648
605 617
527 43
538 841
808 188
330 791
830 591
24 843
22 234
606 626
62 166
391 629
675 99
380 747
828 162
39 196
212 558
826 310
313 217
386 225
498 550
46 79
584 817
289 797
416 643
697 758
204 71
522 660
421 414
593 581
536 24
621 111
688 69
509 312
544 143
18 424
817 746
168 227
382 118
510 656
603 194
369 227
685 157
557 744
10 407
60 49
547 795
750 374
16 721
588 2
729 283
274 438
437 538
481 666
46 231
29 117
351 479
216 217
489 29
180 455
594 582
144 39
402 841
494 163
425 504
616 430
499 212
83 555
407 658
507 363
278 438
359 803
712 440
822 567
272 255
19 48
348 503
595 717
223 176
348 799
6 149
31 431
137 714
331 397
603 186
31 151
653 272
328 166
329 312
609 734
204 278
518 325
223 193
575 444
725 642
528 650
465 277
99 522
35 490
153 799
662 142
367 380
721 21
95 470
405 159
481 70
416 840
541 265
253 435
640 339
513 350
589 196
382 347
383 427
700 127
581 295
42 491
775 58
136 78
372 341
598 655
489 418
87 33
729 473
106 281
630 26
797 413
708 316
681 785
520 7
208 313
153 149
579 145
528 455
102 680
482 566
649 74
306 397
622 586
660 249
695 735
549 345
26 426
548 333
189 703
833 270
192 103
726 398
565 417
66 576
523 609
785 246
557 306
732 170
57 302
609 576
594 234
331 620
499 558
243 821
541 358
282 24
509 127
233 97
160 543
252 112
587 488
364 602
271 501
772 78
168 724
434 803
511 154
194 57
394 599
750 553
594 634
772 843
241 559
837 824
277 148
635 745
8 301
679 602
784 470
447 580
176 350
432 483
691 157
439 223
588 713
146 455
420 247
167 581
520 157
97 265
62 822
464 686
728 206
283 297
266 419
485 317
802 81
622 342
752 102
267 571
54 258
113 838
679 655
186 823
423 251
776 779
286 841
562 411
235 618
121 620
601 327
196 122
17 691
823 448
437 448
295 811
332 55
262 133
337 655
836 605
375 115
431 333
160 309
507 59
141 824
73 15
400 809
575 544
735 78
38 298
314 803
603 426
164 361
464 193
455 684
471 722
168 118
808 699
418 474
366 631
593 367
596 698
5 580
730 278
49 777
84 67
600 796
786 542
750 615
327 18
332 530
318 520
706 441
356 213
447 291
709 156
33 747
570 102
162 516
159 714
2 125
203 401
166 231
33 727
316 683
190 84
373 348
236 448
798 791
530 122
416 678
461 794
158 829
76 43
765 623
633 661
374 501
177 226
729 605
808 674
382 405
511 745
510 611
773 108
387 263
597 360
822 652
118 11
842 410
602 478
431 424
590 62
218 106
809 792
38 122
373 339
204 739
838 456
558 491
173 673
191 157
673 246
339 435
195 46
544 390
215 779
92 17
92 137
774 766
634 151
499 185
92 34
10 148
376 503
263 657
782 387
105 613
713 467
17 78
753 305
295 703
700 325
452 235
828 447
616 119
395 620
427 392
545 45
510 832
819 548
472 730
604 131
586 690
329 650
571 135
207 340
771 841
701 536
208 761
45 649
27 397
812 248
563 116
269 369
729 284
195 517
644 201
283 765
787 274
399 5
36 361
552 258
458 369
739 525
446 674
99 791
794 285
393 341
281 326
634 421
191 154
169 11
642 426
785 694
509 333
36 504
717 521
565 157
477 239
813 224
182 581
43 400
84 823
1 443
360 813
788 538
507 206
72 428
787 496
418 168
826 29
311 445
834 466
460 248
228 215
212 617
728 706
582 694
434 40
720 157
198 369
555 454
496 172
334 625
425 699
116 58
725 309
604 162
756 635
691 176
570 706
38 116
594 166
647 383
408 215
493 550
501 262
528 371
631 807
506 691
168 210
625 210
165 127
257 502
697 105
721 252
565 153
601 799
649 820
193 366
601 25
430 365
106 146
585 658
475 613
114 287
649 718
243 138
795 73
317 346
686 520
815 122
545 610
767 285
762 321
346 129
187 650
301 451
778 28
210 7
600 78
191 502
377 219
465 533
362 257
237 734
399 46
476 684
816 824
756 14
684 291
281 97
454 532
364 669
439 765
836 553
465 652
267 286
654 478
179 7
526 46
532 212
56 133
593 138
494 347
314 136
243 226
409 65
780 80
316 211
675 378
360 720
641 345
330 639
644 429
187 641
502 707
369 777
771 831
320 441
323 388
281 447
106 44
726 722
175 451
271 843
844 529
461 256
294 566
152 449
547 22
716 166
826 177
673 340
549 693
576 356
140 839
69 839
551 768
199 623
497 618
347 538
546 810
837 249
308 163
622 13
145 108
571 453
366 707
257 448
296 208
779 569
679 310
723 254
298 386
651 48
47 209
393 768
141 823
15 749
358 829
788 426
110 708
366 231
700 150
22 837
611 597
282 363
391 650
492 410
821 211
570 669
482 28
99 537
222 705
225 790
594 393
245 608
47 761
190 535
639 654
262 378
587 291
606 477
770 778
590 289
521 811
280 514
818 53
522 602
511 40
818 757
450 443
273 414
487 628
237 609
806 457
416 630
124 826
665 452
353 581
143 237
481 240
462 274
409 646
563 187
601 457
214 100
162 685
682 553
221 259
664 589
43 185
460 681
615 631
300 227
210 426
431 493
783 120
314 312
474 538
333 723
114 206
650 569
281 749
637 695
67 220
782 128
197 443
362 823
382 676
54 458
664 426
461 841
576 220
479 668
499 242
389 471
212 355
233 34
305 413
147 398
574 631
682 399
829 545
704 176
336 309
45 573
816 111
34 754
599 155
485 156
31 256
432 67
125 528
772 327
185 363
42 747
425 180
98 626
482 319
267 399
161 175
286 588
825 315
257 582
537 449
22 198
489 159
336 526
665 771
209 219
483 260
741 796
230 677
629 441
655 443
731 122
835 137
53 26
109 141
572 144
353 443
188 726
816 151
168 725
835 200
598 612
105 80
68 108
143 708
826 397
498 385
228 694
465 818
816 476
123 91
251 437
514 607
489 376
737 654
111 63
432 786
520 521
816 456
330 278
634 254
192 458
763 429
249 655
216 737
417 491
254 668
471 327
200 815
554 386
728 345
175 741
833 217
373 640
728 433
104 54
678 38
141 625
642 151
57 96
130 118
778 663
42 500
193 461
667 712
492 712
510 306
503 71
750 129
677 670
751 310
123 473
609 150
538 154
298 720
499 314
796 384
579 180
463 415
284 456
36 117
615 133
640 336
198 215
489 732
273 172
97 255
113 429
21 300
574 306
80 690
617 71
743 116
66 176
33 579
567 138
328 734
570 215
147 378
510 674
169 726
204 774
189 523
763 154
747 796
469 166
198 300
454 753
826 300
665 618
525 623
649 224
457 163
317 82
829 216
230 294
64 386
261 443
559 108
621 549
700 661
507 520
519 638
331 673
116 393
342 809
409 47
92 297
728 214
15 815
236 405
381 657
528 636
804 739
773 720
470 156
836 140
637 746
711 754
693 355
469 617
416 619
264 456
96 582
75 91
773 554
791 609
112 341
824 730
500 337
118 768
504 148
450 208
549 703
804 393
83 94
364 384
2 363
576 627
332 12
80 386
119 649
830 433
533 543
85 324
565 543
787 466
416 223
499 695
608 649
550 807
827 674
682 790
292 641
423 489
830 827
465 805
399 741
283 539
771 422
305 71
470 844
72 491
695 285
825 230
701 395
508 479
647 35
406 381
728 641
358 460
748 119
417 843
641 193
636 177
510 283
113 229
481 665
286 204
159 602
229 711
285 234
784 258
324 91
43 518
474 831
680 435
80 656
664 397
594 105
464 101
173 724
724 548
484 257
546 260
797 317
168 775
587 377
182 407
209 40
61 127
137 822
418 22
264 479
191 337
315 686
622 15
407 690
308 467
92 384
644 341
627 695
721 560
194 602
630 223
833 705
333 512
136 68
797 294
653 455
312 533
647 141
782 255
214 344
568 817
598 38
383 528
349 213
331 630
701 619
577 370
804 840
190 134
49 313
358 342
20 220
289 224
128 648
418 27
822 88
578 294
136 55
335 578
84 344
175 3
621 207
123 74
159 543
321 442
311 14
468 474
760 322
408 471
570 663
318 691
757 266
191 350
782 343
160 226
549 584
824 73
271 795
529 11
773 421
527 544
719 665
575 420
557 729
248 392
462 754
410 841
305 831
640 683
507 689
509 98
164 246
772 770
332 541
22 252
205 180
715 157
355 703
301 331
106 805
31 445
676 806
550 253
643 429
127 516
386 670
773 786
758 368
116 811
520 538
292 411
190 764
104 723
720 224
699 529
566 843
381 153
492 311
681 449
748 642
737 656
59 214
315 64
262 457
818 14
544 149
581 165
564 227
175 249
725 500
513 112
697 454
627 792
422 814
620 134
62 411
353 554
169 638
6 23
173 488
447 793
621 596
87 519
750 189
283 341
167 324
330 776
367 397
105 724
80 479
272 182
616 289
541 681
595 285
104 469
431 735
17 639
566 723
348 75
308 711
183 367
518 13
645 667
371 384
703 3
496 160
834 283
376 490
543 618
572 686
468 13
432 742
16 75
531 297
127 264
572 395
458 39
161 673
481 398
436 727
500 75
190 630
428 293
613 278
161 230
417 553
72 263
606 755
94 836
290 381
701 431
701 517
577 543
524 757
281 745
523 441
507 469
109 554
236 263
521 687
19 180
131 318
728 234
303 820
298 277
616 765
376 386
50 255
217 227
236 662
257 482
96 182
792 659
544 792
795 244
616 405
835 727
691 141
547 532
487 270
269 688
589 827
314 807
662 73
758 610
577 615
482 64
444 442
563 692
214 501
373 213
141 502
167 708
588 207
34 782
330 100
576 655
805 287
743 813
581 493
121 396
212 128
105 330
330 455
353 51
143 168
309 741
381 824
437 395
416 741
791 70
578 814
649 166
116 590
100 75
509 237
376 830
251 276
548 723
271 20
76 519
76 204
331 348
665 601
171 285
66 470
547 435
585 196
14 355
90 464
89 485
276 239
510 459
591 844
688 16
561 230
842 337
691 582
212 24
195 32
123 591
716 582
170 171
789 323
590 91
459 503
170 443
373 720
524 48
229 193
47 334
228 224
506 499
245 452
399 620
127 683
87 204
412 380
350 623
403 723
78 37
261 523
298 263
621 250
249 339
605 661
709 295
827 811
4 181
208 398
480 739
760 608
57 539
393 748
343 749
140 437
267 714
773 739
531 316
261 400
382 53
194 672
113 74
93 617
197 683
575 527
381 478
744 550
17 652
453 278
589 201
641 63
728 283
187 150
226 327
616 579
374 538
598 471
484 582
506 577
242 635
308 255
107 693
273 510
717 364
113 180
584 650
169 234
226 310
483 700
688 698
637 259
801 74
836 297
547 698
270 706
159 672
454 560
182 469
436 400
423 782
39 533
669 702
726 140
194 21
571 434
194 840
789 325
334 339
772 791
628 316
458 91
495 775
242 297
703 180
555 657
66 516
305 708
325 702
622 107
197 708
456 632
790 792
332 672
540 316
462 728
284 771
420 110
803 48
146 502
108 337
570 714
383 547
721 656
774 410
200 316
335 81
190 827
102 324
155 361
509 450
417 517
751 276
552 779
833 278
257 462
828 470
576 103
94 664
354 503
791 348
797 716
743 197
338 540
157 240
656 660
290 398
93 680
243 730
2 570
521 538
584 537
589 745
743 399
464 831
377 114
394 176
621 484
288 88
87 584
821 669
476 290
146 26
258 278
332 305
298 788
591 787
357 673
636 231
554 562
123 412
723 115
282 436
741 839
474 696
418 413
311 741
36 110
245 774
630 461
298 618
43 104
560 350
500 159
183 81
800 685
835 555
512 684
214 243
417 741
539 707
308 124
47 424
57 623
367 771
421 513
709 151
238 246
309 677
380 126
323 527
700 581
413 263
569 670
87 799
571 654
379 727
2 415
720 478
610 277
611 129
842 67
492 288
261 280
120 698
320 433
501 41
230 729
786 566
379 363
161 156
768 100
362 631
768 85
38 15
594 692
404 368
16 287
701 591
121 126
669 177
766 3
107 63
271 533
456 138
607 378
664 420
386 727
497 181
505 571
338 265
112 199
826 602
268 220
606 365
308 688
55 164
755 274
168 344
294 839
260 819
590 405
634 493
746 813
836 100
175 192
216 15
87 788
536 344
590 15
682 276
294 13
423 92
8 486
444 39
471 457
780 611
170 36
654 715
469 25
441 291
218 283
309 21
664 583
55 215
404 661
242 24
226 668
405 119
460 825
192 167
624 530
248 625
233 144
582 802
142 687
218 81
769 327
187 380
723 747
336 679
686 434
805 126
448 568
489 514
332 601
275 785
412 410
535 119
828 483
702 310
260 493
601 235
407 736
529 503
565 102
486 428
499 645
461 746
625 657
113 548
113 111
334 839
277 537
426 766
198 148
374 315
517 386
412 87
31 69
161 174
357 32
839 690
733 171
423 778
111 747
681 528
439 800
665 801
704 772
45 734
523 655
229 348
80 44
379 675
784 538
144 177
550 361
621 310
717 589
380 211
528 252
408 59
769 472
546 481
412 136
363 696
400 277
553 337
239 585
131 135
350 25
26 457
509 356
780 117
146 350
765 818
324 262
102 632
429 811
758 37
723 5
462 219
773 518
389 724
800 375
107 149
842 300
492 252
38 623
299 410
636 14
22 259
831 166
726 829
828 690
194 274
323 343
820 592
218 35
396 655
825 428
772 528
116 646
744 231
200 63
158 423
215 70
409 657
93 124
93 551
76 699
335 372
715 44
816 675
193 654
762 172
567 451
823 142
825 219
572 321
812 417
577 179
829 110
740 450
152 619
689 539
228 225
121 791
412 421
51 287
513 472
207 597
200 386
698 385
203 240
222 276
332 135
222 674
834 138
691 303
505 443
693 138
261 124
470 29
418 578
382 147
165 188
774 815
721 177
79 602
388 768
387 792
373 825
141 63
85 442
305 553
549 774
261 610
606 329
123 362
165 600
570 24
421 558
434 491
243 514
272 252
725 783
56 621
86 683
124 346
144 691
329 268
699 819
441 48
40 307
778 81
762 5
637 745
432 72
382 478
469 616
154 711
516 716
186 171
131 614
31 768
104 37
412 785
124 627
676 381
235 231
719 229
473 670
511 807
699 558
818 656
632 70
389 427
336 815
67 501
477 696
487 453
87 832
515 755
92 283
715 714
292 642
640 828
298 707
408 458
796 307
164 336
193 795
732 766
469 384
10 232
132 721
58 754
556 505
164 71
261 145
593 397
541 225
746 340
158 805
821 422
149 602
90 269
454 794
509 666
367 628
795 417
228 102
681 806
196 15
714 614
760 636
349 367
237 240
146 250
536 89
129 517
519 421
649 350
315 651
423 746
742 54
743 188
486 538
213 178
565 397
286 816
418 112
184 115
58 790
574 768
521 148
491 359
26 471
281 69
134 417
155 249
249 134
72 658
565 648
728 602
548 13
414 252
784 388
203 142
4 632
296 646
301 40
743 471
565 337
49 114
360 46
268 399
345 811
417 502
588 59
590 819
242 46
208 695
335 97
209 642
598 553
156 628
485 410
489 4
52 840
753 442
137 190
420 417
829 400
499 821
353 565
789 435
725 111
798 800
765 307
305 426
179 71
471 29
273 254
93 405
202 377
98 694
27 11
635 350
816 711
639 446
197 343
414 696
678 805
542 352
697 79
330 72
131 125
575 821
666 91
243 646
524 704
137 322
797 570
546 565
232 192
675 636
171 110
391 799
290 288
113 835
493 669
823 256
351 148
406 28
48 754
85 24
146 380
251 256
380 754
487 558
466 221
447 392
333 132
480 728
251 474
542 413
268 351
286 10
306 307
482 609
435 246
218 746
301 545
366 820
645 343
439 568
512 419
704 599
695 159
246 707
774 178
486 47
552 170
513 396
805 17
33 13
536 316
439 814
556 51
472 266
280 793
577 517
635 145
726 391
563 574
321 663
548 130
428 761
382 454
747 322
162 44
459 336
96 630
208 80
481 86
200 199
137 468
559 171
266 231
51 570
565 375
198 703
107 579
328 511
274 255
603 257
405 357
261 416
681 325
764 615
213 274
379 451
613 197
666 526
200 206
552 611
699 244
612 21
59 661
297 226
334 420
173 26
347 714
212 11
786 693
268 293
200 435
306 445
629 48
627 86
330 122
222 339
21 714
576 291
578 475
47 721
598 451
787 431
177 424
326 317
608 313
258 683
388 400
523 727
758 480
47 253
502 455
710 749
143 627
254 356
473 776
164 116
646 455
350 70
293 769
575 838
724 140
355 300
11 747
285 307
106 368
770 523
753 833
494 300
361 44
155 670
236 506
670 339
123 2
433 283
287 448
90 780
287 618
734 550
511 73
476 415
458 806
810 427
442 337
117 411
46 153
527 31
126 822
234 623
236 178
787 838
74 110
679 368
39 274
242 649
605 309
228 145
408 534
650 61
815 741
688 307
526 221
284 216
425 138
732 36
770 659
92 350
323 392
722 656
770 467
591 734
170 134
354 20
64 295
827 3
11 183
439 132
565 490
142 341
588 368
800 517
590 41
379 573
573 378
630 608
700 240
242 682
689 779
726 663
786 266
541 810
608 344
167 626
477 438
124 493
816 352
725 298
301 232
563 557
640 67
364 553
734 13
123 816
646 41
93 220
261 197
248 667
359 211
47 596
798 585
433 254
288 274
76 575
343 117
186 459
376 31
609 442
759 321
634 272
139 665
212 433
584 673
358 782
822 739
287 715
328 355
388 132
555 707
292 323
565 25
169 386
460 647
555 437
130 754
212 619
119 567
251 656
185 322
161 136
548 492
16 661
143 455
445 285
203 88
319 209
314 735
443 259
320 476
2 644
284 754
232 35
685 351
662 154
72 546
408 517
447 2
147 509
810 211
477 117
425 714
464 470
27 778
541 321
361 708
251 293
496 259
58 25
224 220
331 656
61 625
95 148
33 228
788 627
101 163
84 824
685 422
35 724
610 623
86 438
791 133
348 14
499 451
100 259
40 166
744 625
489 206
200 28
105 147
676 478
489 257
352 655
643 175
113 648
681 571
648 749
472 327
583 377
180 266
626 838
751 520
269 832
28 234
619 514
704 62
557 500
10 834
283 118
230 270
250 440
574 610
401 730
736 399
552 780
311 203
630 689
133 13
816 641
266 21
66 582
584 701
675 179
126 517
624 340
541 207
824 696
365 607
772 161
591 495
131 654
777 615
577 578
549 492
96 178
383 15
111 138
349 235
43 673
9 350
708 259
512 99
529 531
621 573
175 470
447 517
545 712
51 342
762 826
362 431
745 754
566 368
536 414
784 322
519 839
532 221
165 275
546 672
365 455
293 58
828 494
136 198
388 181
481 253
282 781
830 600
488 132
287 108
723 25
825 779
1 278
20 99
496 265
812 421
8 131
764 776
395 631
483 369
710 293
366 14
682 96
222 313
142 367
759 114
745 807
63 28
265 352
180 133
109 334
116 464
475 249
578 773
490 69
4 27
595 357
704 497
223 244
762 837
797 407
276 806
536 559
140 16
732 837
485 211
310 504
223 668
296 814
830 449
207 429
833 22
83 38
174 798
593 612
572 677
106 141
430 754
329 279
311 387
292 759
667 220
481 521
281 15
762 464
671 309
88 661
650 589
508 408
97 386
565 718
626 429
609 534
594 249
520 748
705 794
613 689
329 234
368 225
374 239
265 361
602 386
572 67
307 623
535 2
643 604
273 473
737 263
258 47
297 24
405 231
760 533
744 250
763 544
31 747
639 518
512 224
89 593
843 5
662 603
494 370
205 442
480 82
62 86
372 842
730 747
432 794
372 553
6 215
678 209
383 85
292 801
591 817
798 80
577 597
611 673
254 133
582 198
60 429
513 635
192 639
565 788
645 110
593 693
371 716
544 587
67 211
94 324
460 129
51 714
360 528
552 207
268 648
700 95
167 661
608 107
188 171
634 471
780 487
382 596
692 747
487 612
588 749
201 48
503 309
556 784
6 603
776 518
173 843
500 721
637 613
657 623
196 381
86 500
43 54
271 824
189 504
771 438
19 573
115 839
59 722
261 679
688 34
662 707
797 139
38 435
214 649
747 705
659 419
642 226
755 663
492 440
258 142
667 766
99 37
393 316
599 69
780 737
621 525
824 796
732 125
18 504
233 592
17 487
402 292
59 326
701 779
62 266
670 240
710 406
358 315
233 613
676 223
606 509
402 545
38 275
719 219
434 793
437 471
354 403
579 355
594 363
377 626
621 303
505 25
314 401
336 441
136 687
295 191
587 725
98 514
373 81
487 217
653 330
557 653
195 227
733 188
736 128
20 246
683 350
594 226
42 167
162 45
357 339
785 739
383 441
421 1
612 479
170 631
261 29
779 13
207 379
107 427
492 768
405 470
735 403
366 338
665 422
34 605
298 18
137 778
816 22
597 79
598 743
339 302
585 132
640 228
750 643
326 519
92 583
303 225
458 771
437 749
457 684
574 315
315 407
541 175
372 537
63 359
84 728
832 802
1 478
412 240
507 684
844 436
38 35
168 30
425 62
425 753
480 476
564 108
547 740
345 316
705 550
272 561
240 235
657 291
757 117
405 320
600 429
816 190
835 161
230 479
837 280
9 823
508 725
323 752
640 520
608 48
55 128
165 576
60 205
358 163
541 79
27 334
24 674
172 174
450 263
362 421
783 493
215 688
460 227
571 366
612 570
275 336
666 800
521 227
43 156
69 667
724 395
301 333
49 120
214 327
469 624
145 346
292 31
644 820
454 490
387 293
371 680
120 766
210 205
8 538
485 811
179 464
770 648
552 171
454 278
774 540
147 251
238 621
522 684
187 400
633 64
775 389
409 705
835 166
28 672
621 830
106 637
202 162
700 677
293 201
454 523
693 295
188 497
598 216
523 453
67 567
140 364
125 128
453 334
146 464
113 760
332 804
404 774
60 187
151 108
228 578
192 99
229 279
121 502
600 778
175 688
12 648
252 5
781 367
169 579
384 250
664 103
653 673
95 4
565 130
44 615
83 580
355 171
32 134
555 570
362 795
471 827
147 695
758 383
794 684
759 210
629 661
501 206
33 694
743 403
511 622
387 589
511 496
189 843
760 153
335 331
458 270
30 5
768 585
161 689
400 248
737 673
332 158
793 285
595 114
547 66
561 390
542 224
376 263
138 234
836 453
430 36
161 687
669 339
476 823
808 163
272 407
423 466
164 780
591 605
259 220
631 79
722 809
279 257
301 329
489 607
674 580
571 41
460 581
309 244
517 831
842 171
121 613
522 394
116 821
136 427
106 362
228 791
676 695
272 224
474 491
555 21
518 411
590 783
280 747
551 739
778 841
642 632
84 653
840 814
711 398
784 687
642 41
366 627
101 533
784 692
742 510
772 47
812 253
763 394
528 64
32 37
30 720
72 220
626 671
365 351
662 159
60 838
486 355
192 224
429 706
671 71
212 227
582 422
303 660
146 67
552 810
720 631
700 8
424 478
423 318
575 653
481 198
634 260
167 31
105 481
689 150
630 278
549 133
620 796
653 47
629 15
774 231
333 13
172 141
328 213
541 763
194 446
175 128
561 371
507 173
16 673
823 227
126 346
648 754
485 641
17 161
753 422
173 788
100 820
6 689
84 763
468 816
506 495
288 150
640 699
577 747
607 274
311 369
667 21
325 322
261 519
23 616
688 663
706 452
124 687
18 673
219 734
400 601
644 98
644 703
573 271
22 127
189 400
740 768
669 721
671 646
10 385
603 238
14 414
143 67
182 369
55 253
607 474
740 782
184 195
5 569
228 812
580 25
137 668
691 54
323 240
640 222
645 801
429 300
97 674
6 690
423 21
280 221
673 727
304 94
323 842
196 452
127 474
549 29
480 535
202 167
662 169
294 258
131 114
150 806
497 336
319 608
809 424
468 347
162 455
326 324
326 777
552 792
826 475
535 95
701 819
549 472
486 351
354 21
454 598
389 626
322 74
13 134
765 769
640 363
72 424
770 76
256 63
654 663
366 259
294 689
777 627
733 592
541 400
561 687
763 288
357 393
527 502
565 175
162 819
99 694
16 671
143 811
736 217
257 208
39 237
424 234
595 14
9 130
241 291
213 5
838 461
524 154
236 170
808 571
531 149
704 230
594 156
760 393
279 68
651 766
758 317
578 78
418 93
432 574
243 429
19 413
460 110
472 288
510 843
752 698
153 206
577 777
53 254
750 59
402 291
762 757
578 554
657 302
295 672
276 630
634 232
317 777
729 249
430 264
362 79
641 133
549 130
130 492
757 403
732 843
428 419
836 288
251 737
140 802
489 64
43 182
473 318
758 96
289 380
718 339
349 9
557 47
244 478
559 490
191 140
772 727
747 449
801 806
17 601
254 414
491 655
827 802
311 205
773 162
6 305
485 361
117 339
267 640
190 641
88 530
838 285
507 7
342 155
838 755
200 235
520 617
775 723
577 584
137 843
462 687
84 795
376 119
468 741
106 32
362 515
557 516
182 245
565 46
15 213
575 456
637 658
524 32
709 838
247 139
836 303
357 283
582 831
142 13
751 417
267 777
237 369
718 346
77 370
421 693
795 766
352 446
75 443
361 543
192 195
302 802
33 833
508 338
571 449
787 764
276 88
96 665
794 32
480 755
482 235
427 355
102 213
103 100
123 743
123 810
141 391
416 709
399 679
111 36
383 771
107 103
608 49
449 88
340 108
786 748
72 151
72 21
511 275
513 175
313 70
186 316
222 733
476 53
261 174
15 813
546 611
836 278
51 173
591 99
807 673
720 690
807 802
452 498
130 149
498 205
317 50
92 587
248 217
28 624
802 840
196 705
216 100
422 569
610 172
775 127
171 206
245 331
377 237
139 655
484 799
638 632
16 620
41 5
458 75
593 297
557 195
668 285
445 745
83 346
194 811
565 131
436 122
452 58
622 513
606 138
824 708
19 662
636 442
442 455
442 112
372 241
483 283
690 225
836 832
800 417
784 299
416 320
200 503
143 825
124 729
298 458
295 112
94 593
833 100
59 515
483 360
780 498
619 154
692 380
729 821
507 126
657 670
398 451
381 537
610 709
76 604
556 214
738 657
522 322
740 669
264 761
541 476
121 350
153 660
306 504
715 457
678 223
19 123
241 63
520 201
494 780
207 742
118 479
7 799
391 49
709 54
327 746
362 470
17 366
515 378
643 133
184 169
185 29
131 482
612 233
119 380
54 430
563 90
449 219
85 139
683 339
290 813
717 359
241 214
296 306
811 206
271 500
406 683
405 657
550 149
374 31
780 822
429 285
214 3
396 482
399 213
806 455
203 715
93 104
165 683
102 255
210 441
468 264
120 517
317 181
162 91
232 660
251 711
485 843
821 138
751 146
595 823
111 644
147 618
131 740
357 133
445 166
113 525
563 50
463 773
372 670
531 29
750 147
54 262
751 702
347 652
612 782
179 298
423 36
460 818
652 324
430 110
529 602
742 637
89 552
412 24
309 722
589 117
476 691
283 107
265 500
482 16
697 399
751 469
832 565
227 451
338 249
174 702
764 253
32 302
547 577
515 670
589 443
72 294
708 91
6 173
228 728
318 36
581 791
69 445
488 335
524 174
306 823
570 88
182 191
229 170
239 440
238 688
756 259
96 788
650 583
150 652
283 693
781 517
156 739
92 326
292 381
253 673
640 715
606 127
238 437
503 427
763 645
573 537
812 380
188 633
10 828
726 478
836 266
575 421
786 842
588 475
453 395
418 520
348 375
126 537
24 403
548 466
190 139
10 216
780 415
430 224
107 437
293 249
237 148
362 419
809 441
675 233
78 636
559 214
382 439
626 632
66 658
234 397
53 258
666 517
536 431
419 533
681 842
98 515
494 610
744 604
221 11
168 654
466 493
252 32
402 732
624 346
681 154
222 282
349 690
296 546
498 153
798 108
245 22
598 81
780 844
370 632
581 612
750 568
490 431
200 94
583 406
368 58
539 461
791 129
271 705
836 127
488 644
675 696
323 495
252 479
30 132
53 690
511 452
630 748
385 720
145 231
400 645
190 29
564 733
85 297
270 635
647 695
179 227
509 227
358 439
111 78
347 521
471 804
472 558
740 512
691 80
463 476
393 227
216 754
819 614
542 12
489 789
109 228
159 761
311 680
476 342
594 657
370 452
43 55
760 707
743 304
121 33
11 14
357 347
311 112
179 458
678 591
608 66
202 482
729 7
70 7
539 378
572 172
335 2
444 354
402 299
710 385
185 453
730 451
548 334
418 714
697 762
536 270
737 403
331 276
169 433
98 674
744 102
501 15
178 129
87 89
287 651
697 432
335 290
665 351
167 300
43 159
299 41
616 629
173 748
835 478
712 777
633 776
747 337
396 817
682 55
477 553
314 109
124 424
116 177
9 280
82 1
483 293
837 404
284 255
89 81
551 204
736 14
51 637
539 371
351 817
832 529
712 385
743 190
174 730
268 240
732 506
770 549
506 530
396 551
572 595
174 736
497 466
317 447
265 429
402 169
193 300
374 598
394 560
390 717
453 333
700 735
510 587
593 376
612 44
478 351
228 579
401 493
104 561
230 49
412 633
159 586
21 446
241 712
22 695
576 154
832 52
425 738
372 671
639 602
784 380
90 543
808 488
699 139
286 404
349 526
43 495
775 54
315 841
248 757
262 720
393 135
233 442
838 708
803 441
54 686
789 545
439 118
57 21
43 380
345 307
465 788
376 22
392 73
221 652
320 263
127 340
464 375
678 236
510 626
593 174
648 794
207 721
832 833
742 452
635 154
410 46
249 126
104 322
267 62
581 569
460 583
53 111
365 255
218 771
679 327
455 562
593 63
179 129
829 225
395 417
448 713
494 75
688 652
252 569
164 395
199 553
58 120
594 525
830 271
669 440
744 641
156 823
488 736
819 795
215 745
825 730
679 30
292 236
662 487
556 158
776 721
648 397
299 793
447 576
232 186
177 36
313 381
507 352
825 254
735 263
534 685
4 616
773 178
609 359
634 35
590 65
691 814
726 78
301 582
31 22
829 791
640 677
131 359
181 16
71 785
165 246
113 141
23 697
726 47
230 705
23 594
190 198
321 405
212 311
138 702
50 195
15 530
161 631
608 569
698 224
254 713
185 787
516 817
619 554
168 735
747 707
317 648
653 731
564 777
732 643
106 737
503 609
53 199
471 600
257 737
124 766
829 614
316 543
119 543
544 832
195 650
695 345
436 295
815 586
223 5
470 411
131 821
554 398
829 130
251 150
208 783
173 787
788 727
506 492
548 139
565 581
770 743
753 101
55 389
186 641
577 789
595 240
408 198
64 435
665 815
418 81
781 112
402 420
214 252
407 226
553 843
763 388
56 290
75 206
416 702
432 355
300 451
46 118
473 619
383 313
744 784
491 415
605 157
14 652
203 223
829 639
575 507
81 52
724 800
172 722
432 405
260 338
541 299
371 71
273 368
529 15
757 717
828 275
538 562
170 447
778 101
308 500
85 533
836 307
468 824
704 215
192 237
90 189
8 596
546 695
94 278
421 78
477 97
58 422
760 56
461 306
190 240
798 580
547 122
432 568
469 338
588 363
436 539
788 368
376 669
572 671
186 635
23 383
795 206
206 638
816 73
375 534
836 4
431 800
838 288
585 284
306 474
363 601
446 694
603 396
289 243
221 237
591 739
381 457
297 677
814 457
320 424
382 379
564 251
693 302
828 197
503 263
825 273
547 111
331 104
242 494
683 674
261 743
248 826
335 778
688 258
489 475
808 113
241 749
167 765
67 264
198 702
732 652
829 49
164 768
529 341
608 718
418 53
678 490
374 318
396 215
333 166
596 426
281 507
301 61
176 239
637 41
794 491
34 5
382 422
401 782
131 170
719 161
554 703
60 690
171 420
113 197
798 195
498 840
394 710
755 698
269 101
460 550
19 148
402 752
43 727
675 345
205 690
369 761
226 322
296 589
747 307
286 318
142 11
551 707
588 43
556 317
97 215
124 505
625 15
687 160
759 306
609 205
747 596
370 341
432 604
487 686
542 479
482 135
486 114
567 831
373 633
532 757
286 727
16 820
169 393
297 220
741 435
45 49
325 246
296 365
454 410
510 664
498 745
630 606
757 334
536 421
121 464
130 334
578 844
781 305
604 471
334 670
473 684
202 466
772 397
26 215
205 316
77 736
797 387
600 193
393 69
412 364
430 631
677 264
329 839
200 601
382 641
368 112
382 798
519 495
43 318
590 103
409 696
104 589
819 219
568 345
380 322
715 609
113 121
294 731
136 176
169 430
465 241
301 64
156 664
582 211
261 686
490 324
701 360
401 220
315 567
165 838
536 405
497 363
63 602
10 338
835 72
304 566
621 551
179 483
588 432
842 503
130 110
98 397
152 809
173 641
745 256
670 623
303 471
525 790
282 387
221 810
759 414
511 590
370 698
477 246
461 721
759 302
781 272
104 807
759 795
123 72
160 822
368 197
508 556
144 493
78 521
454 5
728 498
737 34
758 714
354 819
480 634
742 651
646 576
162 703
178 558
68 785
31 665
365 156
548 780
574 543
24 290
719 594
830 62
210 680
315 677
92 494
414 698
647 725
743 533
627 435
147 646
722 88
388 356
212 352
30 380
605 322
770 588
366 718
700 653
676 681
442 749
140 727
116 731
273 649
77 710
835 367
544 664
825 164
35 630
305 661
552 566
610 693
204 595
280 804
724 362
452 761
248 607
777 811
555 127
125 302
342 796
752 83
293 256
704 842
95 60
666 152
208 139
633 363
369 337
726 461
693 705
164 344
452 177
349 28
534 154
328 564
681 490
94 252
593 120
591 525
153 769
208 623
743 721
320 169
121 245
375 134
329 471
693 626
751 300
418 80
280 636
402 323
370 684
244 568
299 191
523 418
317 639
546 683
121 665
503 226
215 199
765 822
806 363
804 119
551 16
511 98
26 91
760 832
135 712
265 712
147 255
484 64
135 749
620 450
394 741
782 498
252 657
768 442
757 359
809 149
612 145
534 345
372 192
209 674
544 617
67 370
412 449
207 714
751 659
697 373
19 353
493 746
587 543
427 672
573 712
635 449
395 837
360 673
841 149
306 677
750 350
765 142
563 418
185 263
494 379
560 128
335 227
742 557
157 707
391 455
545 550
468 79
749 255
767 224
434 692
347 160
809 448
169 795
810 811
758 56
825 486
628 385
374 305
467 145
432 93
286 264
622 429
35 386
787 578
475 337
827 36
46 534
829 280
39 785
631 108
238 159
245 12
617 211
301 362
293 197
452 746
313 178
550 210
409 258
254 672
680 771
261 153
229 2
392 650
445 384
799 817
263 580
450 384
379 554
617 235
42 5
55 140
308 510
539 477
22 63
315 35
578 369
246 739
105 238
38 301
760 30
530 533
299 828
735 293
38 223
402 452
369 244
481 530
793 322
579 668
301 157
304 143
303 201
782 803
307 138
729 135
695 440
216 813
283 155
630 753
468 418
120 754
544 431
321 439
836 165
304 30
338 403
323 321
363 796
804 398
56 655
237 341
128 337
220 386
572 751
499 25
150 445
171 149
83 544
101 129
686 716
789 843
196 171
622 150
804 29
400 262
805 804
775 153
669 264
646 134
43 264
409 614
674 426
505 666
732 738
400 631
681 36
89 569
574 595
186 368
317 526
595 97
354 283
118 288
635 246
27 187
506 533
700 157
141 98
752 127
456 65
622 791
169 150
776 479
66 333
754 211
194 355
279 562
524 546
179 461
397 446
92 826
574 653
773 803
260 317
431 213
229 453
653 152
729 31
175 436
8 533
396 391
604 636
273 1
510 61
597 625
594 54
759 256
687 457
376 65
165 79
358 698
549 578
548 478
179 606
760 169
678 243
181 327
520 344
168 461
281 825
650 394
615 652
172 826
672 312
621 613
23 103
571 333
318 3
8 117
509 663
805 385
55 427
169 338
261 545
193 120
816 268
513 101
229 707
142 657
363 337
588 449
812 683
716 219
330 295
819 644
825 501
557 111
408 421
628 727
10 697
373 323
447 411
195 178
413 322
577 356
362 673
254 478
644 596
439 551
43 262
153 151
82 288
119 126
185 99
758 514
147 525
67 623
342 219
490 176
581 736
383 112
590 120
666 809
33 257
182 36
209 163
600 98
284 667
395 440
710 155
140 778
641 363
452 449
463 382
751 730
222 240
740 734
813 674
724 3
407 817
76 34
232 181
485 150
530 558
50 539
536 297
768 199
18 624
781 246
456 580
757 522
349 525
151 730
633 79
294 455
485 93
323 453
145 40
273 243
252 438
59 213
811 424
333 25
367 601
136 403
66 97
201 785
497 717
773 124
367 645
812 457
372 187
797 315
844 303
461 534
603 513
298 278
414 718
272 393
680 278
347 306
756 360
646 767
97 177
577 335
38 230
651 151
318 401
136 440
379 133
557 794
364 599
12 802
791 761
775 611
649 731
373 794
374 557
395 159
610 692
89 467
804 49
401 801
475 646
20 490
241 502
574 330
44 817
759 495
190 62
672 478
412 108
158 71
507 150
586 642
200 750
682 581
330 737
756 634
722 655
706 757
268 627
506 482
281 389
842 430
91 580
93 141
572 795
844 44
539 424
332 362
781 635
763 600
374 213
671 65
48 817
383 844
657 424
261 567
605 274
255 807
470 385
826 471
330 336
522 435
842 252
210 327
509 539
49 440
93 710
530 435
55 462
90 458
347 98
604 408
369 49
223 170
575 65
226 199
816 486
779 177
222 826
4 610
416 441
207 576
589 41
695 381
733 554
347 147
590 77
43 250
189 375
834 643
10 436
691 749
260 39
30 388
586 438
17 725
606 646
294 747
591 246
496 720
41 718
272 127
203 247
597 790
727 843
228 335
430 600
578 716
715 160
626 176
419 457
370 668
704 68
80 601
651 18
744 752
429 586
729 567
587 551
584 128
292 787
38 516
313 370
653 516
243 753
152 364
584 531
397 807
640 261
270 64
1 764
37 150
131 81
701 538
830 24
517 618
11 401
431 632
547 803
180 801
277 424
413 538
402 782
827 108
167 247
372 181
462 385
119 309
633 819
376 834
321 540
482 776
772 25
508 666
768 163
261 419
103 670
331 336
370 288
775 480
707 438
526 542
360 342
603 249
383 140
682 248
330 469
223 717
833 777
98 601
264 81
653 130
205 708
194 331
361 801
786 279
471 403
67 15
458 491
810 68
83 112
812 786
756 817
483 810
372 596
619 803
213 569
432 28
59 356
226 831
87 558
758 524
760 395
405 626
816 242
816 775
781 349
709 318
214 226
622 784
218 602
552 769
130 53
82 237
522 562
597 15
630 713
658 178
634 392
770 536
511 565
661 530
423 436
4 365
634 213
643 689
355 428
256 655
221 32
371 303
818 215
325 327
329 694
681 567
388 414
99 504
578 326
429 659
822 614
838 625
141 629
762 420
608 449
594 598
721 102
477 249
759 682
268 472
27 204
836 228
124 777
485 429
621 16
544 466
162 471
538 359
75 244
147 739
507 197
488 198
61 654
38 222
544 93
740 255
232 271
820 205
837 809
269 12
343 685
454 14
736 378
203 702
662 86
662 411
633 230
141 49
628 801
297 80
563 655
323 233
287 440
732 347
711 795
56 822
131 497
168 389
801 720
759 562
759 121
190 283
429 652
750 786
798 559
267 263
92 695
660 596
516 654
633 602
405 201
312 592
562 614
265 49
158 574
432 153
416 442
566 650
787 404
627 341
94 155
279 339
55 112
86 310
744 279
778 369
598 644
468 639
45 99
487 263
398 102
842 687
628 252
369 537
49 841
566 290
797 782
314 491
65 288
827 661
162 263
217 413
201 800
273 339
76 833
77 408
593 327
701 574
423 59
262 310
483 276
636 227
546 42
76 775
424 792
678 567
825 404
87 145
616 52
460 426
498 660
281 348
374 756
178 790
33 54
283 645
578 600
737 696
551 140
330 528
607 398
256 792
287 521
188 451
370 148
453 134
434 138
122 75
842 312
51 812
364 823
788 388
403 277
348 86
333 620
835 609
389 810
742 648
446 341
501 569
377 364
325 684
125 650
509 736
610 554
438 115
571 108
488 157
85 655
423 639
464 47
836 757
304 293
816 731
590 274
489 652
98 45
832 569
390 572
390 385
835 193
104 85
506 796
506 713
433 31
699 260
256 426
737 380
752 30
315 31
389 311
744 5
725 45
527 788
33 373
603 218
634 630
198 231
590 606
609 698
726 303
77 68
22 70
577 192
353 817
326 41
335 700
49 88
197 129
382 787
53 785
644 287
50 154
16 766
372 66
372 324
636 702
171 668
144 617
750 452
290 181
477 723
330 844
510 797
296 308
830 177
623 157
836 216
819 128
657 813
657 368
42 834
90 19
733 389
589 384
112 12
437 366
286 603
612 615
599 567
613 266
354 412
409 484
9 47
356 370
174 294
760 211
72 500
71 356
92 418
311 814
19 569
30 674
352 31
371 237
278 779
688 46
281 584
519 104
358 622
732 319
453 842
419 163
229 80
518 166
389 592
557 783
796 457
181 13
637 246
485 408
231 702
84 128
24 119
770 684
643 582
643 29
311 716
147 663
224 259
791 291
578 795
208 615
56 546
317 518
193 674
603 187
841 148
733 414
93 436
2 62
421 745
424 415
189 470
137 797
101 596
616 840
341 592
141 30
315 276
70 337
753 607
509 794
418 482
185 375
331 496
418 747
760 147
408 360
482 307
218 353
483 118
484 645
472 656
106 533
453 504
315 515
738 45
810 558
224 517
334 285
266 240
725 637
726 677
484 532
468 302
704 490
218 408
805 740
450 62
311 176
171 159
562 517
328 188
356 558
529 738
508 706
475 841
588 292
535 815
247 761
184 214
367 68
97 125
704 131
334 322
579 356
130 293
598 318
193 642
782 380
820 183
487 149
788 611
842 714
368 350
700 183
732 368
627 63
300 632
136 745
532 277
781 572
93 663
527 40
342 806
344 641
71 491
450 538
737 779
809 134
39 183
259 302
104 450
759 740
405 569
409 272
372 652
48 714
16 478
842 70
842 674
454 256
330 306
373 313
499 802
124 131
372 819
46 78
805 627
395 687
726 229
624 274
54 725
113 626
55 371
77 802
186 513
777 244
559 217
500 117
591 322
818 174
508 584
343 52
146 528
238 474
756 166
810 794
830 115
761 277
634 13
209 635
483 100
788 567
432 76
325 196
332 664
332 459
56 402
572 203
754 674
828 189
186 736
758 186
71 730
561 481
791 569
293 493
212 202
801 456
530 134
676 377
431 810
272 564
207 54
693 387
331 670
614 110
409 138
66 509
451 515
750 542
641 58
53 225
218 541
682 787
472 307
59 198
104 794
544 720
742 727
353 333
251 40
508 583
89 803
202 401
825 233
211 163
666 815
773 9
648 419
281 548
597 571
709 710
229 625
639 718
268 131
87 255
142 397
92 53
222 243
312 771
665 155
421 762
95 471
441 754
352 126
744 177
9 142
636 586
275 5
232 101
507 418
88 351
611 333
90 79
95 652
770 253
27 624
830 803
103 560
593 551
482 283
579 1
542 407
275 821
10 476
527 220
591 9
694 754
436 681
218 740
59 47
114 456
405 455
120 554
317 208
796 696
139 720
599 356
416 360
323 25
587 836
110 766
401 266
476 439
518 178
153 7
373 766
263 62
469 15
781 242
786 562
445 363
493 821
415 199
556 533
679 452
760 723
465 563
743 288
835 3
47 226
188 336
107 2
327 178
436 477
497 120
336 800
388 249
45 672
212 315
304 350
485 92
136 644
416 226
596 422
200 665
826 120
534 313
726 52
218 735
562 197
733 163
728 741
378 316
503 514
72 692
216 712
534 680
827 639
222 755
260 66
239 153
300 568
482 795
704 719
123 535
719 389
144 325
174 796
826 663
675 324
609 674
793 403
759 712
685 741
563 472
571 568
139 122
528 160
360 637
35 686
306 745
491 668
291 240
726 618
207 209
539 796
212 543
531 53
794 690
595 648
320 726
338 205
304 816
637 466
158 608
506 186
17 93
201 648
795 133
699 332
454 612
770 121
774 227
705 677
745 81
784 776
323 688
374 791
34 110
805 29
816 282
638 224
212 580
462 5
462 766
444 363
249 696
421 799
464 152
124 538
626 807
383 502
681 619
721 694
394 521
687 515
353 746
45 809
654 138
619 275
506 665
499 82
597 363
241 156
768 278
168 705
33 187
501 221
263 665
468 605
189 654
251 394
305 235
308 6
164 259
185 719
756 463
773 663
632 213
703 159
555 491
529 435
68 435
732 779
768 500
474 567
181 673
738 107
420 426
793 274
63 246
598 18
391 112
179 384
415 291
290 133
182 554
508 343
586 596
612 285
60 50
336 715
353 739
651 132
135 111
467 48
778 659
747 802
126 343
272 66
787 814
751 609
807 68
791 782
556 836
552 164
230 757
61 472
268 202
65 426
395 761
105 614
759 550
125 48
90 466
273 658
303 220
607 102
330 427
23 465
82 184
93 819
762 620
303 833
678 438
314 594
804 183
788 456
842 795
348 627
10 96
224 41
688 583
333 404
555 48
409 342
301 288

961 4968
494 700
910 401
507 481
816 655
515 333
607 260
864 942
583 304
478 119
166 745
390 606
357 492
948 680
532 943
798 502
721 817
938 841
959 134
811 345
377 497
929 428
358 710
947 496
397 665
471 945
662 387
293 781
848 376
204 101
775 165
444 1
227 806
599 801
584 70
579 55
363 524
587 243
589 640
716 8
58 312
739 889
848 741
406 536
23 522
137 354
585 918
156 639
244 798
553 176
810 510
700 417
831 921
95 264
762 230
484 321
378 50
734 49
379 777
695 528
515 451
809 916
537 63
297 697
442 435
777 163
170 787
136 927
319 145
619 64
762 23
305 56
441 3
126 208
127 290
309 395
347 575
739 785
223 128
170 28
301 76
374 23
90 673
219 87
787 538
752 340
679 728
349 320
310 770
558 594
299 881
504 279
742 888
92 844
807 809
556 341
276 794
211 353
408 221
547 764
484 328
620 104
547 187
730 278
282 110
163 680
326 302
457 29
167 837
738 643
443 651
334 277
216 896
482 536
376 11
358 752
318 379
106 756
163 431
74 421
755 521
367 130
591 857
636 201
355 586
410 777
123 592
126 401
272 341
456 50
22 928
948 882
586 215
433 383
59 89
655 280
943 369
338 765
620 111
804 358
698 685
271 436
834 888
454 388
8 842
578 737
444 674
429 540
265 715
31 823
837 896
605 643
716 906
592 632
72 286
538 882
152 670
761 48
541 455
528 554
746 241
515 404
470 249
440 794
811 823
441 704
316 564
957 546
893 441
83 668
251 674
105 723
824 458
753 175
326 531
476 818
198 147
218 921
98 425
775 289
740 226
319 430
397 775
547 139
735 432
604 424
768 17
904 840
112 794
305 356
759 699
888 139
120 245
105 659
853 664
840 238
328 551
310 539
98 843
226 436
303 6
552 458
357 910
880 951
603 938
748 337
328 156
312 544
59 28
575 545
959 380
357 206
760 448
729 209
396 717
475 195
143 478
630 617
276 832
41 650
331 801
616 701
598 72
740 930
247 555
740 505
914 704
548 660
332 269
895 55
310 611
884 87
460 52
225 921
796 107
635 53
777 758
730 637
106 870
782 615
859 787
198 341
593 601
575 729
39 832
652 183
74 658
233 519
676 714
273 179
419 611
365 145
59 728
902 124
548 158
90 645
333 736
123 509
883 781
612 351
39 797
354 699
499 75
300 547
191 92
304 107
450 198
785 764
259 628
507 253
331 156
827 922
225 36
388 784
388 365
462 67
717 919
5 24
414 115
287 771
914 606
220 294
494 374
297 173
207 438
318 858
961 214
281 785
569 691
363 156
571 659
475 301
720 449
896 185
884 903
645 879
493 786
29 292
468 772
162 273
52 782
880 550
664 720
115 294
831 745
309 632
152 491
604 214
636 694
656 924
363 800
569 706
633 508
83 285
515 412
130 524
622 692
98 520
558 873
208 600
190 135
172 630
891 957
394 127
486 900
473 401
650 504
381 901
195 653
200 115
248 911
652 536
297 2
466 925
584 8
125 333
960 718
399 644
444 897
256 227
875 637
594 417
708 182
904 793
355 623
692 99
12 736
125 873
92 764
257 593
448 531
702 950
465 947
528 343
430 886
603 2
90 518
891 849
758 801
570 185
753 511
287 565
960 789
287 613
558 293
725 539
797 126
669 154
840 928
215 130
605 171
200 638
437 132
185 859
665 417
378 794
334 323
166 621
297 898
742 730
564 270
196 352
235 624
756 237
899 246
934 742
70 496
423 909
526 838
602 488
90 670
262 693
287 314
392 694
663 230
793 67
846 759
23 135
807 955
156 789
856 371
638 672
29 796
857 461
509 414
697 645
953 56
57 115
583 94
739 30
551 727
926 707
317 108
959 525
374 103
321 873
213 368
88 908
602 839
487 459
566 865
219 617
862 216
377 504
934 654
223 764
24 478
938 914
244 204
796 254
836 758
265 610
140 903
786 452
219 902
899 887
423 728
26 644
207 306
470 142
579 816
526 386
307 149
951 691
607 317
679 736
295 943
114 697
773 619
632 401
500 351
673 686
475 682
197 409
504 400
806 88
700 571
93 643
757 518
244 751
243 609
119 647
834 305
913 473
528 433
351 736
820 332
625 156
391 602
716 408
700 682
807 844
9 541
619 954
653 231
395 564
358 696
716 490
200 294
308 527
511 757
612 32
558 939
410 404
550 692
505 530
159 243
548 559
215 573
805 525
554 121
590 230
376 50
98 895
612 183
406 7
706 428
93 503
514 52
820 879
527 613
35 804
683 168
808 943
234 735
57 467
480 154
299 175
184 709
180 776
826 270
747 387
801 113
533 4
936 157
596 608
904 518
649 466
634 173
63 885
326 268
147 294
167 588
262 574
494 825
480 504
467 632
653 369
551 149
235 398
141 601
532 805
310 124
147 842
905 685
655 823
235 645
897 589
953 408
199 557
864 205
648 575
23 718
245 415
326 772
888 950
158 388
342 97
517 835
627 840
912 385
423 405
150 567
106 344
563 240
797 698
30 706
659 932
144 866
74 594
57 864
294 536
5 603
172 810
411 610
525 351
269 324
124 467
768 406
627 563
59 632
244 511
690 164
188 614
563 581
837 890
289 398
237 296
96 190
359 86
856 777
122 623
280 800
674 691
731 475
570 410
916 130
516 399
517 263
518 415
350 113
957 64
796 277
282 840
110 756
746 658
160 586
425 79
162 751
269 521
271 293
755 724
771 859
554 80
497 783
702 91
5 580
708 243
448 534
857 837
762 266
861 448
206 888
257 114
314 712
531 401
849 67
688 574
722 578
462 622
374 668
33 747
894 557
623 113
418 503
76 212
295 800
349 541
957 659
208 553
69 51
52 714
118 169
473 955
864 842
58 241
494 302
303 4
612 409
870 815
944 242
543 426
494 470
454 180
870 289
875 555
307 316
588 206
643 182
955 466
423 24
153 25
399 61
85 771
747 321
530 339
824 407
635 415
698 365
784 99
575 945
187 924
494 520
756 859
918 952
133 921
364 741
600 914
927 553
589 932
806 426
788 161
853 132
277 643
78 76
10 603
248 194
794 688
565 49
840 91
469 882
371 367
917 851
891 249
244 54
872 887
483 621
743 44
853 417
135 14
550 451
915 399
789 324
49 883
884 370
285 800
441 532
499 557
559 115
224 864
84 526
266 260
785 210
740 365
146 813
91 596
883 723
534 557
520 460
342 949
248 677
410 169
528 380
307 592
172 932
142 175
22 961
888 538
722 11
558 168
43 614
872 676
106 734
195 748
584 834
161 277
806 297
898 53
112 180
206 561
333 59
579 319
959 790
473 107
746 281
659 42
99 445
146 43
918 163
39 835
353 643
755 6
529 61
855 950
197 455
182 549
734 246
95 662
459 897
703 536
633 897
378 61
45 222
484 526
788 59
551 596
953 445
473 720
347 385
422 520
39 538
149 185
80 585
784 525
763 755
216 911
5 391
641 677
287 391
200 701
419 51
809 511
811 399
816 74
907 944
216 371
624 888
604 145
804 166
806 765
236 928
319 264
24 720
540 886
300 568
762 127
393 573
170 291
675 83
289 764
760 15
398 745
590 866
45 202
226 903
399 410
617 832
645 535
672 568
72 75
355 476
860 553
937 540
348 264
629 126
471 442
724 166
872 103
393 799
297 142
433 432
669 843
241 946
183 51
738 454
276 633
105 754
118 955
62 916
746 845
85 247
891 522
162 676
180 221
318 536
712 872
353 724
442 106
758 572
335 430
518 812
122 691
780 7
267 77
489 77
87 574
915 681
528 838
188 156
957 778
876 756
673 623
374 755
32 262
13 860
747 769
731 587
650 730
330 381
729 405
630 383
151 519
207 474
359 79
542 779
391 174
356 668
857 478
233 961
893 424
396 909
73 616
129 347
257 142
598 169
494 774
81 21
444 47
652 17
447 663
140 893
471 315
870 812
469 903
716 617
695 775
440 927
476 376
114 215
848 134
400 230
266 807
60 11
251 345
372 823
753 500
378 380
716 133
550 728
440 67
371 451
768 770
270 415
530 939
729 860
749 534
953 464
185 651
130 723
35 31
150 219
649 853
123 853
799 751
410 745
598 864
583 68
213 681
839 222
344 568
127 791
215 715
591 499
258 933
44 764
336 461
815 474
609 553
156 658
325 682
414 800
584 436
794 452
556 428
242 420
147 685
953 467
337 821
249 384
709 655
229 698
855 47
395 398
548 216
108 445
453 65
366 919
661 781
232 674
26 911
260 743
635 52
26 776
87 62
224 77
768 152
589 890
380 111
718 941
760 618
810 661
48 505
178 158
568 362
712 889
129 707
665 945
297 308
593 933
724 373
742 892
652 7
763 780
784 706
127 879
721 666
587 465
590 719
807 895
422 845
24 300
495 324
904 763
374 224
265 364
871 681
341 942
378 664
876 239
87 709
328 567
473 644
203 901
907 635
295 422
263 353
520 531
652 640
674 301
893 919
547 604
74 457
15 466
57 277
429 691
425 300
742 553
703 624
361 308
109 661
785 414
16 555
580 120
899 350
920 761
816 759
733 96
210 182
856 44
380 615
895 949
915 779
854 449
898 154
138 495
702 26
575 935
652 827
526 691
672 654
770 210
450 397
279 409
698 905
256 267
421 26
115 99
903 906
762 848
686 777
899 537
492 924
729 951
254 571
290 61
805 831
809 436
386 850
693 354
870 714
339 210
68 301
323 63
451 466
569 699
363 60
660 787
809 453
334 488
335 282
101 126
12 737
824 946
895 242
127 667
112 680
884 577
784 210
244 413
163 384
66 748
450 642
288 670
920 425
700 550
519 436
423 174
192 314
29 680
266 170
478 510
197 626
695 151
378 220
864 145
61 674
929 363
877 960
272 273
220 676
440 189
413 168
150 342
426 455
788 879
872 267
524 428
448 141
785 597
870 308
938 544
353 715
482 443
807 735
247 676
34 359
733 393
571 345
589 909
589 472
636 393
22 529
205 463
758 208
98 865
119 649
543 59
621 839
660 261
146 328
457 710
258 420
421 552
101 905
209 488
282 302
800 821
944 752
948 418
729 255
806 383
807 914
403 133
665 909
632 921
620 855
637 739
13 905
569 899
822 657
293 606
846 235
385 88
598 406
628 555
193 955
32 141
378 700
35 830
492 434
932 855
213 510
865 166
403 99
596 50
541 260
500 644
672 722
90 653
603 790
108 47
271 749
399 472
177 373
349 510
499 180
462 135
797 693
327 759
754 879
141 7
858 464
143 402
3 279
493 937
313 8
741 573
408 383
797 163
730 891
106 100
125 883
126 99
770 840
255 14
256 376
607 752
516 887
834 813
584 856
304 15
12 797
570 294
272 557
881 145
632 818
314 687
425 526
742 40
309 621
727 340
469 290
70 288
435 238
110 326
662 932
204 529
206 352
869 187
389 673
588 243
128 828
857 278
567 292
155 224
699 417
165 906
499 54
60 176
478 660
210 741
229 173
620 24
33 402
659 783
1 201
455 490
277 433
188 537
443 400
136 623
554 514
820 887
289 249
200 524
236 877
367 144
151 497
461 517
101 185
376 536
360 647
490 602
716 407
681 243
274 331
477 315
832 353
562 823
942 817
579 748
926 608
33 161
671 759
587 895
162 158
92 553
535 930
97 658
150 370
940 145
498 250
726 390
276 533
785 62
566 334
218 877
714 79
790 281
77 343
441 958
594 268
797 425
866 881
354 830
161 463
326 340
695 526
937 176
846 469
539 325
595 288
815 792
313 914
430 342
748 181
533 602
826 1
274 322
862 835
439 75
131 559
631 872
27 467
119 514
286 458
470 679
769 487
527 492
59 909
646 943
336 583
703 225
209 146
282 248
636 625
840 674
747 670
70 678
316 681
716 794
403 445
899 916
112 706
919 770
467 715
258 791
650 760
672 10
357 160
908 304
88 881
450 320
716 873
473 777
181 632
798 496
848 390
575 449
123 841
389 176
477 866
309 576
359 269
235 771
270 205
163 437
626 7
422 635
590 410
73 372
318 787
851 439
619 921
66 571
583 695
140 931
327 463
218 309
843 337
702 951
683 229
295 76
405 65
425 718
920 252
650 853
836 304
361 413
606 511
915 835
588 747
607 281
20 165
277 460
702 233
172 99
84 954
267 177
604 126
733 339
200 545
698 288
320 896
41 832
336 791
886 142
282 808
632 40
230 503
840 391
450 610
511 245
825 163
898 59
844 803
702 251
885 185
479 38
823 59
100 169
869 464
282 6
927 420
13 25
217 536
72 309
321 350
274 122
276 824
259 169
885 298
236 195
338 841
458 496
601 296
729 726
329 353
566 565
753 463
678 356
672 432
2 774
497 582
831 914
904 108
761 178
762 116
544 467
873 483
121 518
531 827
931 159
200 552
400 597
904 831
455 938
809 741
920 865
707 443
319 801
581 433
451 495
514 614
235 324
753 892
790 918
746 786
187 764
810 269
854 713
869 216
857 521
931 673
361 939
46 822
761 583
569 175
766 575
572 263
240 792
920 74
259 174
518 536
406 67
248 830
619 721
29 509
748 64
894 756
454 673
146 750
308 865
458 684
61 346
22 622
443 519
479 886
207 157
172 81
815 295
618 33
328 38
892 13
692 210
103 886
396 508
164 798
272 519
9 327
899 792
591 260
39 462
461 546
5 645
81 348
471 35
872 97
38 79
543 590
693 386
196 238
824 132
271 732
694 923
517 724
511 77
111 456
70 605
539 222
725 785
119 486
10 22
191 352
626 837
730 242
569 765
197 708
143 821
554 420
627 614
21 187
24 12
462 728
29 576
239 383
138 615
489 75
548 633
308 307
252 538
275 576
746 587
520 507
663 749
417 401
188 563
338 279
656 176
669 903
359 111
507 917
327 134
19 433
481 911
758 708
300 863
263 304
603 261
395 376
927 417
916 174
130 343
525 61
336 907
867 697
392 23
374 470
926 3
840 886
34 478
896 493
234 908
73 444
551 505
256 177
521 594
59 113
173 741
627 199
779 408
690 309
446 882
470 254
91 247
825 400
677 311
220 529
259 899
687 720
320 344
940 543
430 635
604 66
695 181
329 414
457 337
275 694
420 504
442 743
811 111
944 671
4 495
762 900
672 577
802 358
309 544
898 31
366 228
332 780
354 353
580 782
282 360
375 878
672 944
710 343
804 213
382 441
455 616
702 920
523 657
856 861
509 104
358 390
175 852
960 605
142 25
751 437
643 43
717 16
937 183
482 12
944 431
671 20
662 400
68 127
621 255
750 631
566 640
746 602
954 463
390 921
421 522
460 142
876 757
235 435
436 936
858 867
928 59
117 765
92 431
700 820
771 723
114 265
405 945
637 433
464 728
669 570
393 921
485 722
214 291
90 302
643 757
591 52
774 508
407 343
447 849
48 886
32 107
90 555
490 436
807 139
114 747
904 506
684 62
959 92
533 942
788 921
799 413
857 113
656 831
426 701
729 230
218 573
555 937
185 838
576 903
186 546
231 624
136 211
76 468
617 286
821 264
356 643
68 312
195 688
837 769
624 376
143 432
75 935
131 47
310 234
723 124
744 450
83 358
869 843
357 774
484 658
32 952
174 163
931 75
802 612
831 324
293 500
848 885
21 837
759 65
500 325
951 536
911 555
541 596
215 281
90 111
146 768
249 922
828 11
459 933
6 715
207 515
349 803
725 66
122 233
892 40
909 657
637 278
416 880
640 395
607 34
239 4
186 496
619 593
794 154
892 159
124 324
638 623
508 574
877 280
516 591
239 117
520 245
371 805
210 519
892 699
470 742
815 136
277 691
420 609
388 495
223 124
478 268
143 117
778 587
49 428
781 408
850 352
378 247
638 692
514 821
2 895
419 840
866 845
761 558
866 536
157 409
747 82
29 459
886 240
440 200
938 203
646 136
540 651
392 961
887 918
357 935
907 636
529 481
196 379
180 864
622 123
148 841
917 325
464 803
846 757
225 285
599 678
274 682
559 752
706 836
818 961
729 669
931 546
206 455
806 221
862 579
702 948
39 710
121 271
481 654
192 818
193 936
233 139
30 927
580 379
260 624
719 304
650 618
25 348
98 314
256 593
262 745
728 296
138 811
456 279
718 76
913 765
473 851
93 117
96 268
81 533
170 661
744 125
686 896
194 921
840 586
433 832
1 372
197 926
817 401
703 199
742 477
559 761
829 389
435 370
12 843
160 77
362 460
217 455
317 247
145 949
556 555
480 324
63 611
299 530
192 844
108 765
198 648
198 851
109 614
566 827
642 723
607 786
58 904
22 91
188 764
814 664
581 312
875 23
233 592
268 868
418 121
879 315
907 290
797 230
726 180
394 445
123 97
412 753
813 616
289 311
180 942
59 51
39 946
110 771
83 258
102 696
450 185
713 952
440 216
808 165
479 132
738 615
903 245
635 564
906 228
479 147
393 15
740 21
795 917
86 925
328 596
271 161
438 452
636 356
388 697
902 888
825 741
579 592
356 130
670 697
929 62
361 217
676 203
71 180
475 65
702 640
762 536
423 812
603 449
834 446
305 127
622 577
118 546
735 574
170 928
960 720
204 618
225 288
450 650
669 378
598 446
447 124
667 432
72 173
804 230
806 573
607 292
184 646
24 272
850 100
120 772
923 720
871 830
65 787
21 120
726 56
200 688
642 888
74 221
534 330
367 495
585 169
478 635
266 449
857 484
832 342
362 208
851 852
398 434
879 384
863 783
610 801
121 217
721 866
451 368
9 507
386 380
779 142
545 7
176 345
447 597
729 584
242 538
489 889
327 175
882 311
789 844
351 661
539 148
406 632
595 934
611 639
372 369
672 307
809 271
469 356
895 602
262 752
398 212
914 400
118 97
630 808
423 252
297 869
616 8
157 922
151 726
781 64
552 690
880 739
826 688
201 385
293 107
403 112
591 707
591 858
116 820
724 555
104 724
429 38
123 881
35 700
253 493
625 140
24 566
440 694
55 774
796 280
924 306
677 855
359 928
559 674
749 216
307 893
397 142
116 785
21 157
412 747
684 248
293 573
372 135
615 69
691 812
563 99
855 97
143 272
364 67
442 847
619 232
565 811
45 77
373 885
504 764
598 571
692 255
236 560
859 812
810 5
74 889
933 243
628 103
479 162
133 507
905 402
688 878
566 850
389 243
529 881
478 480
162 39
558 868
457 737
59 661
633 197
725 892
870 810
542 279
763 275
66 545
847 952
637 37
509 130
146 60
148 930
773 406
820 72
95 446
120 564
321 511
88 136
931 716
70 104
905 909
20 866
935 390
719 928
918 624
815 267
563 290
104 312
32 607
380 205
60 881
1 384
61 950
573 240
188 850
246 674
300 449
232 834
451 941
887 165
587 546
397 707
346 549
129 319
627 741
899 264
831 280
810 809
816 47
744 246
104 849
274 915
286 306
605 922
197 744
201 346
750 395
422 818
422 711
272 70
651 296
355 119
581 411
917 554
369 148
794 784
829 771
730 482
138 476
485 841
397 524
731 609
418 627
554 551
663 623
832 472
953 85
372 864
13 764
770 182
929 518
215 79
732 475
952 428
509 878
191 24
223 577
556 726
426 354
542 763
317 159
583 250
877 910
897 315
934 479
954 956
95 538
904 723
706 707
377 865
670 485
86 843
677 439
18 705
30 683
422 329
38 178
561 60
427 229
266 583
104 118
712 928
358 959
469 349
101 253
950 723
56 302
239 221
520 93
702 272
388 643
444 775
100 43
310 205
487 749
440 135
593 455
116 959
423 87
213 482
66 65
177 66
674 896
325 783
181 688
112 212
721 525
422 186
103 822
483 285
852 240
726 537
858 686
747 644
626 89
1 634
368 868
866 363
77 901
406 837
152 356
58 375
708 152
289 157
550 17
550 879
252 792
38 453
939 955
73 733
705 533
833 472
887 368
48 479
947 7
915 46
118 417
773 52
495 13
940 657
410 624
565 711
22 705
336 650
703 390
293 900
476 356
39 890
75 680
83 903
45 68
687 793
266 819
78 264
548 634
273 600
830 715
202 468
517 64
663 33
940 618
244 292
194 250
303 694
217 660
696 157
590 302
492 64
38 508
277 668
72 348
646 480
529 259
861 942
272 654
293 828
789 935
292 705
352 896
4 331
387 536
941 684
409 555
873 577
953 493
469 577
548 943
236 460
769 910
365 92
618 903
120 393
960 48
281 174
41 373
709 832
122 874
299 226
321 614
33 64
53 504
109 747
471 178
592 134
699 25
334 831
257 730
746 243
547 449
267 611
567 898
913 799
104 285
716 338
310 210
719 818
78 174
614 44
834 901
857 583
763 348
422 590
360 772
378 623
758 179
695 293
627 147
417 311
744 425
422 92
846 574
463 255
82 817
537 393
819 79
959 941
567 160
474 529
903 315
441 456
289 97
500 651
652 776
889 179
323 355
307 614
252 752
164 933
744 533
588 519
366 914
290 468
314 41
152 132
850 624
959 86
797 583
446 127
802 271
246 503
894 633
213 387
864 572
684 597
22 20
940 751
110 930
226 435
464 330
257 321
358 737
782 530
396 377
933 19
735 923
526 653
335 691
122 781
426 281
621 906
541 943
569 279
146 576
148 812
663 223
738 585
612 232
650 551
647 923
541 180
448 834
618 243
410 476
708 667
840 137
251 616
415 502
54 903
329 113
700 64
853 784
781 571
869 477
372 731
727 889
13 844
750 432
91 885
627 240
883 551
21 610
277 324
744 9
580 218
780 900
711 880
379 395
88 407
16 148
625 333
250 348
274 62
275 235
940 885
663 829
542 367
157 168
549 561
300 432
533 445
293 499
520 265
646 116
957 503
867 828
735 485
600 726
319 916
269 258
394 886
738 37
861 859
53 910
917 20
612 924
461 621
243 390
1 868
562 527
101 145
483 557
88 581
638 72
197 51
300 397
735 429
116 384
719 210
521 383
282 685
542 882
725 50
545 97
158 460
805 901
709 821
274 847
556 90
442 157
171 553
62 40
464 727
907 256
808 529
638 145
161 796
897 445
916 50
609 544
442 934
574 352
338 352
357 54
892 811
318 676
551 667
290 373
509 639
610 939
58 92
521 860
633 634
647 77
170 853
27 740
211 694
268 701
198 911
823 280
471 679
590 573
317 710
91 923
95 198
958 634
557 610
689 860
635 910
319 164
86 657
434 100
150 651
511 765
912 459
775 241
9 274
718 511
867 85
62 863
233 844
949 142
931 399
454 498
517 586
633 493
663 860
902 252
796 476
227 564
192 843
907 662
853 909
912 705
285 577
676 375
317 737
110 911
571 395
588 555
384 132
102 153
78 98
261 578
100 11
47 524
525 737
73 643
218 566
32 315
731 507
74 938
475 399
848 148
828 393
369 929
704 135
528 642
120 537
41 658
779 154
209 435
252 474
821 230
396 938
734 601
346 774
336 115
875 772
574 315
317 391
101 426
157 179
840 641
958 277
343 381
435 443
511 849
858 434
370 445
369 643
151 463
45 147
636 365
246 647
546 69
417 801
552 164
18 951
698 376
809 832
57 555
591 184
351 113
379 311
26 23
488 417
134 865
761 880
267 701
619 933
37 437
790 93
810 576
418 531
82 299
391 130
90 757
749 311
275 925
679 524
955 15
421 364
613 178
893 364
869 24
82 698
252 182
448 587
486 834
12 657
872 399
72 167
663 43
1 522
61 887
811 147
463 86
946 950
211 787
607 153
568 49
664 623
382 713
826 316
904 682
522 408
336 379
284 597
635 491
601 437
929 394
160 291
416 232
271 90
75 176
735 555
42 502
443 692
80 522
889 159
579 736
908 922
731 358
660 253
436 437
607 150
927 205
261 667
264 710
104 901
46 953
30 429
769 930
804 231
675 929
662 856
499 465
350 195
408 571
816 80
523 284
763 38
726 942
875 119
857 736
568 56
570 292
936 582
758 383
577 852
209 335
49 392
892 68
819 348
341 373
396 960
788 917
681 136
627 273
186 412
332 403
498 474
389 390
119 117
637 514
34 596
379 894
140 944
869 510
793 719
403 328
314 312
902 914
820 339
764 651
9 13
293 127
565 252
477 955
897 900
257 946
809 827
459 564
499 707
351 610
816 212
170 82
303 80
435 390
47 214
626 759
755 348
96 623
847 450
902 294
856 661
616 331
890 182
638 477
177 671
587 567
126 177
734 511
303 154
41 110
186 423
517 922
152 544
448 759
542 301
46 470
619 496
875 327
840 483
605 903
18 834
954 375
247 264
721 544
666 758
442 67
509 508
522 825
448 818
5 807
874 629
283 913
838 535
342 413
235 53
128 745
109 201
862 466
827 92
24 287
336 38
580 380
104 589
527 238
66 713
932 253
932 228
368 92
811 576
167 243
423 318
650 334
336 181
119 623
959 546
873 415
211 608
638 452
585 275
440 777
17 235
760 589
580 18
321 176
874 154
655 608
12 550
161 228
822 654
608 331
129 403
679 560
366 621
224 31
31 99
297 370
523 178
66 315
28 851
412 408
956 597
71 117
364 334
592 863
459 927
681 145
543 361
619 437
531 647
634 585
265 23
663 734
105 811
640 485
626 745
218 586
697 866
37 449
826 146
4 193
98 164
172 245
781 278
284 388
801 908
878 36
951 438
292 324
521 889
902 419
687 518
725 703
928 159
579 455
189 722
733 619
809 71
827 113
792 510
5 511
173 781
172 795
590 140
391 108
72 202
587 497
747 609
920 688
26 529
137 562
712 477
954 708
484 545
447 619
152 290
107 560
91 343
454 137
239 215
5 198
633 101
450 617
541 511
483 212
121 185
422 361
584 244
802 151
272 665
108 703
417 243
109 402
590 629
856 822
721 845
948 760
426 790
132 6
266 534
732 843
808 684
422 810
371 7
684 230
794 489
888 4
109 110
262 264
249 827
11 404
217 655
239 367
594 609
956 290
872 889
813 76
688 368
192 245
194 233
417 720
753 350
788 382
861 320
149 925
2 695
705 490
811 122
597 651
708 898
693 924
626 117
184 224
539 219
795 117
317 777
412 712
139 745
475 155
750 699
553 43
332 880
920 513
316 455
248 501
207 716
640 91
72 248
953 926
198 356
276 482
740 196
486 375
634 425
138 463
569 866
855 245
421 248
453 251
790 170
78 534
941 289
767 531
292 782
313 826
722 144
655 69
145 67
392 18
232 711
563 653
910 500
34 453
34 910
72 293
664 628
583 17
611 697
939 356
121 51
439 659
817 896
68 228
499 530
320 242
879 139
954 830
258 943
902 99
354 514
957 782
282 912
464 531
112 732
339 20
318 682
566 692
687 783
291 153
915 380
717 280
440 39
232 59
46 382
172 550
178 240
197 239
736 714
649 606
319 214
941 224
143 423
742 293
46 508
780 623
875 273
12 705
591 251
920 695
627 625
114 219
22 816
118 400
334 59
484 492
599 495
515 538
954 259
68 63
296 324
478 108
351 701
778 491
69 561
303 286
825 665
788 267
40 756
186 542
577 102
687 538
759 154
372 837
374 444
891 770
124 908
378 620
354 556
159 460
607 541
721 937
421 912
58 568
557 654
582 863
292 77
784 727
503 713
749 166
894 302
292 502
475 830
774 76
63 602
260 596
279 647
287 390
760 466
49 178
213 25
893 348
159 189
931 44
381 424
688 950
357 749
207 575
262 190
669 790
568 582
446 906
395 852
837 885
841 228
254 435
683 52
177 950
55 365
352 610
793 188
333 662
423 111
845 79
665 79
512 153
200 725
629 254
24 110
885 356
335 264
944 378
546 514
121 830
46 325
587 825
17 177
590 188
666 302
576 277
929 812
297 788
155 949
851 720
863 384
684 231
892 361
418 141
16 503
34 778
334 908
461 912
644 245
891 736
421 21
591 530
776 433
151 283
137 600
544 8
874 771
599 39
893 923
875 624
622 817
920 247
826 385
737 375
441 178
462 890
706 961
429 923
600 697
106 568
250 581
450 598
201 159
419 208
653 578
846 311
584 724
256 699
188 70
745 903
797 326
900 781
28 868
841 436
514 498
16 745
81 662
550 848
293 935
629 538
794 285
363 658
261 153
887 14
246 434
265 657
726 573
297 894
234 224
880 344
272 461
37 264
85 837
295 788
277 505
649 251
564 467
858 777
687 637
271 545
303 609
550 53
680 20
478 600
275 130
919 352
354 876
523 21
120 961
355 812
798 850
18 600
268 278
804 210
16 593
496 845
621 536
274 643
735 583
77 643
697 246
267 29
820 93
587 212
16 736
492 561
732 838
554 385
847 772
422 268
541 133
874 8
213 52
820 460
146 41
552 833
735 211
679 838
74 730
9 669
376 888
693 906
32 234
854 119
536 682
791 818
568 786
742 329
797 679
392 173
873 65
154 343
416 398
734 599
218 700
566 878
595 587
383 812
313 429
797 366
117 639
499 428
119 879
944 180
31 53
731 643
697 279
276 852
611 92
422 159
853 727
728 549
421 659
161 47
308 170
914 573
662 807
590 256
350 549
138 64
78 145
494 703
298 477
959 512
274 629
122 249
358 307
397 588
3 375
721 192
577 654
427 547
875 531
303 925
928 673
382 115
310 508
206 765
920 21
482 891
150 341
276 614
672 288
360 34
785 925
326 161
842 838
129 46
762 766
49 889
7 203
747 504
30 900
146 308
399 26
755 789
620 668
508 245
412 592
313 836
58 147
501 251
229 394
835 759
285 340
587 933
380 854
239 939
646 643
665 430
938 756
78 149
406 294
700 257
907 473
853 562
823 950
350 250
948 429
513 725
721 908
131 438
919 561
922 253
629 523
320 493
155 147
601 780
781 251
470 521
587 353
497 564
653 434
284 913
846 777
187 233
71 246
872 388
891 416
728 563
87 467
160 437
804 282
878 772
312 187
517 391
189 76
498 337
636 166
541 257
580 151
684 764
488 754
857 84
345 741
325 481
91 937
570 438
666 626
668 786
256 519
869 191
542 879
546 713
254 537
16 291
488 764
49 7
180 343
755 709
74 50
167 595
349 364
702 170
188 97
816 335
815 600
671 286
838 538
802 91
568 427
452 11
489 775
184 339
954 782
607 329
326 519
945 491
374 880
692 803
524 93
637 6
19 387
152 683
512 340
444 313
337 657
122 601
303 396
395 298
244 399
254 448
448 377
352 531
917 555
295 265
184 673
949 623
213 810
70 536
456 486
254 927
386 635
424 315
295 162
405 51
615 643
27 954
637 839
589 946
858 314
70 124
880 168
163 564
37 664
591 225
613 719
815 712
816 263
358 913
54 644
956 759
534 323
756 524
116 377
740 787
45 270
817 253
273 674
820 844
220 833
829 621
223 162
407 443
118 65
172 732
484 129
84 654
602 89
432 812
287 476
524 165
123 41
398 927
607 135
220 651
732 537
98 501
118 271
421 728
871 217
52 937
706 384
716 112
475 136
820 809
222 505
848 824
584 587
544 383
426 169
305 409
854 884
874 389
84 620
196 681
72 935
252 395
717 538
186 60
919 290
98 170
329 882
709 922
556 404
472 918
607 127
331 304
96 854
22 305
357 855
101 938
919 42
319 201
545 602
160 243
198 906
641 718
16 674
474 553
421 509
168 424
722 130
650 532
387 582
892 932
211 189
432 946
143 172
109 193
893 531
956 734
612 275
316 893
138 179
246 561
780 473
375 449
746 537
271 605
642 652
58 721
586 705
206 457
423 893
775 488
318 109
374 94
900 890
897 139
659 764
537 818
771 356
149 887
736 157
85 676
232 168
341 522
238 765
287 596
570 16
146 53
370 577
21 787
796 415
796 836
357 837
116 506
604 458
95 221
237 751
550 351
2 778
672 71
285 782
812 255
961 291
762 804
9 836
636 762
693 524
293 961
91 342
143 657
768 863
310 569
810 715
152 647
461 387
870 843
541 809
798 329
907 553
105 22
378 924
362 50
324 909
255 955
143 518
934 322
594 905
168 860
633 674
81 45
5 791
118 938
361 935
640 214
546 866
94 821
95 516
666 189
426 678
81 446
851 251
427 86
545 367
449 787
363 411
312 771
272 500
257 325
661 305
717 948
420 592
648 624
686 144
299 615
672 885
692 214
652 158
382 532
18 901
807 120
128 526
663 585
184 682
170 728
445 791
816 661
321 233
781 296
16 632
904 74
662 94
58 143
690 55
313 828
837 639
541 61
154 801
51 890
269 474
70 405
141 549
678 259
310 420
556 452
42 667
596 723
833 231
42 203
673 736
84 100
705 176
32 66
933 772
715 849
611 845
282 918
836 558
693 560
719 160
512 6
641 520
106 718
500 56
842 596
257 749
921 757
578 942
761 502
685 597
782 401
33 355
231 843
678 171
147 487
937 424
518 383
242 292
542 369
357 442
32 490
489 837
147 779
403 373
422 179
814 477
67 337
47 759
213 22
147 596
913 320
930 434
733 266
588 586
220 424
496 54
131 654
447 323
837 540
951 953
127 924
128 278
862 321
699 609
829 530
645 576
734 812
707 855
799 741
800 205
322 84
602 713
711 25
307 832
736 715
552 584
204 605
426 768
944 725
889 291
814 919
389 124
244 961
671 321
857 330
322 688
911 502
796 556
752 37
143 812
826 154
816 449
539 943
114 814
387 468
44 230
630 255
854 352
46 187
379 657
548 214
54 582
665 843
273 493
610 901
590 290
793 726
96 546
479 873
702 79
200 352
778 704
603 85
714 935
533 215
607 48
750 433
610 417
315 7
171 193
906 909
893 121
880 18
476 453
402 480
665 368
370 214
726 77
227 246
797 371
543 371
411 338
310 534
711 344
911 511
422 49
136 293
603 747
477 203
649 821
369 278
422 280
813 30
634 80
634 525
928 637
231 194
680 628
551 750
1 579
128 373
714 765
213 857
171 799
758 241
151 285
770 796
925 64
925 651
216 415
251 903
415 765
489 542
22 42
590 908
423 791
262 78
293 398
485 159
857 926
527 727
750 741
507 533
329 706
364 250
934 906
459 922
171 573
81 2
826 599
538 606
66 163
355 436
907 649
349 115
790 182
70 497
565 865
53 786
700 467
242 37
224 630
705 792
761 235
64 117
478 23
817 92
193 407
712 267
255 409
397 410
932 174
271 385
93 246
275 896
204 490
168 536
116 265
559 138
184 630
907 754
729 3
702 824
568 564
454 259
421 434
293 375
314 884
186 545
129 69
280 113
944 862
120 955
372 852
660 784
693 94
307 783
436 169
845 605
283 79
21 294
684 497
188 908
462 215
705 668
122 463
30 76
785 19
126 399
747 185
21 151
112 233
662 236
521 387
931 385
427 160
41 520
396 499
532 850
367 504
435 906
916 15
352 311
648 629
707 930
579 633
266 619
763 571
782 453
857 562
162 584
169 906
128 302
316 148
779 110
377 623
746 215
578 501
234 54
162 699
54 337
950 501
436 176
186 366
53 838
638 630
755 914
756 881
106 12
374 599
344 697
308 935
38 610
600 885
665 163
21 656
848 692
392 420
749 630
763 28
853 888
394 290
396 2
517 427
166 668
868 623
729 688
706 77
411 685
450 77
911 679
401 844
807 598
322 882
313 758
953 108
228 704
262 644
248 882
449 387
220 859
512 888
658 130
805 908
419 193
457 790
150 793
115 389
868 845
688 608
360 60
196 501
586 829
164 513
510 237
404 685
39 707
281 145
118 781
174 19
138 656
784 264
287 272
513 817
473 666
75 55
111 353
934 518
313 654
625 477
797 28
297 927
112 780
810 800
213 728
392 306
513 674
509 369
915 242
888 432
385 727
274 536
23 368
731 154
211 558
912 796
52 490
884 880
716 769
292 387
693 529
866 463
242 373
358 945
652 483
891 96
319 715
819 617
179 787
731 846
242 823
805 518
2 853
829 895
421 754
353 4
515 699
9 362
190 892
263 94
406 786
528 245
837 373
196 3
407 337
235 216
128 702
474 166
194 775
116 663
743 746
907 219
634 701
363 674
313 272
772 859
795 19
755 504
276 33
278 370
743 17
387 291
232 326
378 301
377 775
89 657
164 381
554 805
629 367
814 275
300 263
502 922
202 789
583 178
760 147
223 796
32 48
627 492
954 772
650 704
479 510
373 691
283 594
113 540
543 801
509 838
254 497
32 836
55 465
476 221
703 581
575 656
334 152
191 183
724 544
618 111
656 251
583 901
14 384
880 468
680 241
330 544
514 905
629 50
33 46
359 15
121 611
857 273
147 525
576 92
456 480
292 433
204 275
223 625
477 342
794 392
851 524
889 268
212 691
915 871
807 528
604 812
706 821
364 355
252 927
386 528
521 416
188 209
350 453
889 68
448 345
49 317
586 492
568 623
179 896
899 818
57 571
314 683
637 530
416 890
725 561
687 366
5 147
636 921
378 460
835 865
29 413
806 841
734 178
234 375
681 788
629 59
294 651
133 76
204 576
500 65
691 37
580 932
819 719
9 875
144 309
678 856
734 389
735 281
697 11
719 499
956 903
518 890
560 50
559 90
299 749
891 448
321 85
601 464
893 871
103 704
622 574
861 330
476 759
848 509
521 18
887 704
856 792
846 560
709 149
819 310
198 652
72 913
309 844
808 464
780 398
224 865
233 842
575 861
118 664
739 905
804 49
473 505
883 933
129 210
476 66
846 65
648 456
723 524
133 181
580 899
174 852
256 796
910 279
423 713
877 491
218 303
273 133
934 882
349 178
196 234
186 833
354 754
79 148
392 886
299 738
283 249
211 260
386 495
584 628
422 416
293 888
845 8
944 497
276 690
81 256
501 597
780 346
84 622
641 547
660 438
842 561
809 373
874 682
426 915
813 240
300 888
138 440
326 933
841 767
660 293
35 444
440 779
455 765
848 18
34 868
761 330
483 610
562 246
138 11
432 415
853 889
731 818
465 183
771 395
310 773
97 261
35 65
226 182
834 643
465 564
601 692
284 474
249 578
891 345
823 873
626 660
882 183
739 241
648 937
318 387
728 759
284 220
837 338
253 11
880 353
533 169
733 716
202 270
845 402
546 908
554 16
830 644
355 922
542 498
709 477
793 107
101 382
934 306
769 67
274 697
313 370
295 251
922 765
226 222
17 771
507 371
708 557
194 781
568 248
606 165
770 312
554 439
292 866
504 720
191 11
103 555
410 942
307 518
931 13
364 557
782 279
824 284
385 177
461 603
902 195
776 830
462 385
934 866
191 152
598 584
494 60
110 834
439 375
219 323
419 773
459 208
169 13
26 398
170 811
63 775
196 850
638 905
765 799
803 340
16 514
861 576
195 491
700 789
954 517
95 845
259 28
902 408
189 280
669 419
10 471
212 623
622 326
395 19
931 622
127 139
54 377
699 449
645 939
747 176
360 652
691 772
836 878
88 153
300 373
642 163
777 437
919 812
164 67
522 477
479 885
817 594
270 843
340 311
107 555
839 803
753 554
220 330
114 527
422 639
423 882
447 751
565 454
46 570
655 712
603 254
125 195
344 545
514 530
701 699
498 896
22 578
317 724
185 100
520 195
693 891
509 652
276 472
38 597
682 668
938 463
131 95
769 673
633 795
475 950
62 549
856 246
620 572
677 445
515 558
491 173
584 898
241 741
702 890
170 228
207 546
833 151
695 264
102 222
367 139
912 514
431 42
471 535
34 855
276 389
73 656
36 492
26 400
813 212
707 849
580 225
397 285
361 173
626 611
309 405
953 110
774 193
406 954
761 358
591 953
943 60
46 947
888 536
804 857
714 148
783 914
159 696
882 789
746 642
579 551
814 331
889 829
811 250
460 76
306 226
948 533
942 148
492 615
192 452
128 214
954 828
349 715
760 409
902 180
851 377
249 353
506 778
12 413
433 237
548 319
913 795
862 55
414 955
667 639
899 472
28 245
635 832
367 148
795 668
486 545
819 657
930 404
423 31
438 201
223 568
722 929
519 404
116 904
541 509
762 16
122 774
120 43
729 201
378 793
33 874
312 285
611 950
497 362
96 685
334 57
484 494
675 955
506 607
678 155
931 658
752 480
915 684
273 921
1 60
347 357
512 373
98 238
885 434
265 376
190 237
688 684
222 745
887 340
70 776
180 387
860 240
571 472
347 47
384 203
478 566
878 51
9 752
618 635
565 16
838 214
683 436
241 942
721 943
900 957
819 770
709 359
559 728
580 102
653 291
123 56
910 452
676 900
587 156
746 64
155 408
442 453
95 397
761 686
686 654
241 294
181 60
286 722
107 51
70 69
702 864
739 556
779 855
815 643
889 952
672 56
395 285
17 578
768 134
129 691
310 359
700 59
96 681
885 241
574 134
83 43
68 317
87 324
81 366
62 674
812 264
364 251
202 234
88 836
734 249
22 410
333 474
225 689
45 592
102 896
319 27
526 417
762 46
804 259
714 346
700 935
755 193
956 537
846 603
326 90
447 744
3 90
414 483
470 12
71 70
626 315
493 165
456 632
945 337
498 92
633 475
320 741
871 881
602 199
656 366
360 699
912 228
453 221
347 61
57 202
738 381
276 940
478 544
533 15
389 139
814 755
689 798
397 887
119 215
365 914
186 356
813 563
408 353
542 153
191 689
599 263
305 175
924 668
570 635
94 341
901 294
481 624
332 479
462 264
711 222
557 327
396 593
450 232
644 149
754 776
223 894
112 268
334 791
784 537
465 50
247 467
29 28
892 36
730 955
472 935
938 392
554 365
665 524
465 801
761 410
300 754
228 428
356 694
140 912
931 875
507 546
327 605
221 933
129 2
432 25
151 926
170 574
763 469
97 415
68 176
207 839
146 665
788 715
833 353
384 409
795 875
807 392
484 386
695 473
822 949
144 44
219 736
313 403
129 566
131 355
336 836
265 86
174 120
820 715
857 570
753 355
38 696
420 835
330 410
591 659
480 99
354 832
854 936
84 176
374 579
674 400
752 912
550 582
311 828
539 604
2 533
89 831
954 69
389 89
887 771
448 139
662 370
140 798
252 251
146 680
396 627
178 781
187 278
129 398
148 436
84 473
600 935
450 210
626 292
274 465
458 178
648 521
663 515
297 459
192 842
580 163
637 899
584 166
485 508
177 827
643 154
160 922
75 368
475 570
694 14
114 611
735 632
669 62
410 285
156 860
69 850
567 674
876 504
714 495
61 62
2 931
920 418
59 62
367 617
423 124
207 307
392 400
191 447
854 85
124 536
876 66
768 91
255 7
54 578
809 51
123 413
386 437
23 157
856 377
874 120
30 305
729 795
34 355
198 280
200 540
897 490
256 835
667 291
867 494
153 343
501 654
213 670
449 952
191 669
430 240
512 207
217 895
398 420
846 487
565 891
300 713
349 480
41 567
98 119
150 548
136 243
889 443
579 764
418 205
450 258
427 939
569 131
953 694
57 353
719 492
539 416
574 289
587 417
622 500
184 553
465 301
46 307
42 852
252 694
269 624
607 758
495 765
310 37
773 641
257 431
265 838
784 263
659 885
696 233
642 304
915 146
365 258
754 812
12 562
333 142
617 573
617 342
341 643
216 537
275 240
841 176
364 156
589 786
330 545
350 932
495 398
333 31
514 491
687 465
319 875
840 803
731 379
753 810
457 776
239 809
267 906
354 298
252 70
871 165
897 4
359 458
489 690
768 414
483 25
591 794
38 80
22 693
3 517
607 101
98 336
904 643
82 502
480 393
516 687
38 468
96 232
839 390
660 417
273 436
76 536
718 155
174 723
576 11
23 341
160 616
262 357
65 924
283 623
716 943
729 779
186 581
654 89
435 680
38 873
177 363
611 76
740 771
709 713
371 459
762 413
563 241
874 179
639 879
322 577
198 611
587 215
419 252
663 154
846 675
940 151
83 276
446 365
892 574
961 786
187 873
815 641
185 685
111 212
441 261
442 509
593 843
320 679
190 790
926 843
68 44
406 103
270 736
400 468
421 410
438 865
115 532
479 746
314 324
779 615
229 511
396 107
282 56
820 609
646 365
328 768
664 741
888 387
147 905
636 512
359 363
677 567
788 526
473 609
864 801
884 570
277 596
780 28
924 930
368 701
47 446
140 825
694 368
843 605
491 535
58 613
543 141
375 79
190 260
878 132
832 713
355 775
427 242
928 776
266 316
912 236
752 657
87 151
155 298
825 435
58 724
403 125
679 312
483 532
707 459
302 152
893 534
677 726
35 681
847 938
78 660
917 177
611 561
919 616
425 825
672 923
712 109
731 334
732 368
595 493
707 292
129 859
497 340
99 597
243 664
744 286
570 30
494 718
303 242
286 350
498 160
913 941
364 567
144 799
884 109
131 591
45 802
763 574
764 176
836 325
177 317
766 73
327 775
589 496
673 537
554 568
24 547
208 405
740 688
354 25
455 921
357 594
565 493
396 419
541 861
167 836
755 105
459 171
633 671
192 622
173 15
191 368
376 538
50 401
617 25
267 383
567 149
926 813
885 639
576 841
167 459
755 650
349 556
852 238
428 99

889 5679
199 495
688 130
376 760
651 790
134 489
122 635
730 237
19 200
226 796
530 324
316 781
568 333
743 404
528 587
734 105
762 126
374 328
378 647
287 208
634 295
220 132
457 846
844 846
538 33
654 763
714 302
461 831
148 319
138 501
727 405
21 408
868 733
244 343
280 670
290 395
864 876
480 613
229 150
234 572
147 351
664 51
102 639
251 787
379 198
470 243
241 217
705 586
354 536
692 368
767 133
869 312
674 822
130 792
578 13
433 762
235 690
189 29
725 443
783 64
804 701
58 827
792 881
602 584
325 239
454 397
383 57
420 53
349 249
46 203
874 584
657 486
288 655
788 888
199 603
700 92
741 824
396 413
221 80
443 90
482 572
508 572
666 126
173 94
512 616
490 226
478 835
172 410
449 827
585 503
404 69
278 618
135 439
379 535
842 625
295 301
776 97
690 573
837 698
841 703
788 402
574 566
690 799
458 767
739 578
78 464
63 388
161 388
76 17
713 800
341 4
777 428
818 512
236 237
218 608
52 670
350 415
80 687
283 322
457 91
773 619
207 163
66 737
71 624
273 441
719 260
585 800
288 794
399 866
297 604
89 802
224 119
150 355
480 336
122 459
214 513
474 370
603 723
340 811
536 391
510 590
431 614
548 598
502 519
261 227
380 189
532 34
403 110
742 631
541 93
265 450
434 507
215 563
661 725
296 375
70 825
754 402
540 57
763 160
808 353
610 821
848 610
304 640
487 177
144 857
679 567
69 273
112 316
776 509
35 366
323 555
202 660
461 649
653 132
379 768
340 762
694 473
370 581
576 312
842 471
348 140
318 588
266 235
628 107
119 608
870 408
410 650
361 184
822 206
788 74
574 639
445 569
726 426
746 444
360 15
640 65
398 369
91 225
458 676
185 100
479 782
543 689
56 24
713 670
436 83
589 51
76 202
460 105
195 748
772 356
99 392
817 825
759 422
585 74
869 741
283 206
835 429
805 333
222 465
655 463
630 365
622 624
426 104
58 503
193 392
212 156
196 633
770 824
753 592
738 228
338 278
747 126
809 343
331 663
62 773
766 313
857 579
504 729
248 70
883 364
261 726
372 239
214 734
822 281
811 520
759 886
376 857
195 255
508 366
324 164
483 568
750 734
257 369
385 420
744 467
162 206
76 264
169 762
617 244
803 683
552 873
708 852
342 62
186 538
116 735
307 770
113 119
373 525
246 309
708 522
271 276
113 192
169 182
669 865
142 227
700 537
668 63
445 114
87 701
623 607
352 614
725 43
374 395
821 632
2 400
865 440
710 320
199 709
439 378
757 235
114 863
705 320
120 736
411 477
486 819
842 43
662 790
163 509
571 488
225 148
577 552
847 173
480 437
245 635
672 819
396 595
880 694
82 424
393 723
341 749
290 61
309 335
845 781
537 228
548 428
586 635
137 295
673 853
376 595
205 144
152 292
780 670
144 236
333 300
359 812
11 444
195 427
94 555
829 588
48 563
768 284
588 181
854 80
251 141
329 587
91 612
544 418
692 26
341 500
161 598
236 238
808 503
498 689
482 42
554 150
835 643
89 357
112 130
259 95
44 735
880 135
611 825
581 401
763 594
879 860
258 12
277 272
757 81
888 257
117 209
524 823
727 792
383 306
258 447
611 535
638 316
839 767
59 175
519 765
187 124
22 17
514 31
480 337
101 303
84 595
396 417
276 429
154 513
674 328
422 578
224 709
266 470
584 37
802 228
342 277
487 788
497 796
691 804
821 425
276 882
208 88
622 319
21 546
688 289
467 802
237 116
185 297
259 622
562 877
579 153
194 425
195 640
226 886
356 405
325 610
215 562
322 436
94 176
249 297
32 769
216 94
878 592
112 95
184 444
277 737
302 140
359 357
469 421
148 882
192 118
856 29
857 836
334 652
340 293
878 797
572 88
885 500
148 455
318 787
490 168
845 610
112 618
846 261
738 402
480 398
334 72
798 315
504 371
6 222
569 642
788 484
800 578
832 570
365 262
760 787
336 590
54 357
860 421
219 471
778 496
752 528
63 300
199 156
811 294
501 404
636 209
520 500
557 839
313 715
530 100
607 86
611 147
739 422
748 40
588 641
847 660
207 245
376 303
452 652
595 453
494 787
340 680
182 351
710 801
73 444
720 801
77 412
138 352
214 735
91 256
270 716
223 660
584 238
837 708
79 821
129 781
202 845
461 240
346 144
534 607
792 106
356 105
346 3
186 680
61 556
440 51
527 465
569 203
385 638
540 860
744 831
691 728
143 329
593 718
781 503
607 37
313 848
612 459
26 138
551 230
144 49
723 200
315 184
776 438
433 21
386 133
831 821
580 523
511 421
794 425
70 492
164 836
732 124
475 499
295 350
664 260
474 271
147 415
318 660
52 480
660 86
493 259
488 413
803 582
347 322
384 712
30 740
235 626
412 119
683 138
63 356
296 413
179 654
151 769
887 27
815 366
31 716
198 183
201 657
792 800
744 569
783 482
754 590
408 644
887 686
611 332
95 491
867 386
861 160
516 269
850 435
745 671
505 310
139 355
236 593
166 876
650 637
529 607
380 644
495 181
426 620
483 661
653 455
261 446
461 39
870 333
829 796
811 881
731 38
444 838
310 598
9 233
484 845
638 554
389 536
238 180
256 525
658 424
75 70
178 837
752 290
382 765
476 610
174 745
804 608
304 642
522 284
32 881
580 798
121 87
457 117
683 707
151 489
529 217
568 513
309 849
586 109
662 78
651 475
131 547
225 332
478 654
708 303
709 242
693 669
453 436
138 476
116 769
724 423
357 394
786 642
841 629
219 441
204 307
523 318
124 105
363 739
39 464
886 733
869 257
56 104
887 189
561 673
772 501
596 217
209 591
199 44
204 838
577 228
502 103
782 85
506 106
75 243
98 176
411 213
527 771
736 818
259 9
149 570
114 825
79 825
719 329
886 298
120 821
163 451
457 226
865 237
813 261
386 337
371 277
172 290
234 103
254 98
628 427
251 601
231 743
380 803
258 569
232 378
45 496
428 504
626 38
16 762
835 79
843 616
626 888
458 710
755 583
772 715
241 175
21 601
33 187
845 316
96 773
688 633
296 418
725 471
636 246
77 510
271 391
516 101
147 762
136 361
122 94
255 414
528 682
205 774
520 862
231 246
322 782
599 628
370 446
589 881
274 828
281 104
64 360
780 118
174 221
291 3
111 642
63 751
689 180
693 706
76 874
537 456
153 471
63 636
709 202
177 489
305 316
567 60
251 613
426 314
185 49
157 43
640 442
143 25
317 278
373 751
859 460
320 260
748 828
769 789
834 309
360 660
805 404
164 492
591 267
580 827
248 452
532 786
518 805
559 59
600 8
434 888
808 53
883 667
793 647
334 289
837 182
434 715
239 620
560 613
102 156
141 464
291 63
874 560
586 808
651 156
600 580
214 516
585 400
722 43
730 558
185 883
438 335
223 636
642 522
889 405
848 394
66 459
807 42
475 517
276 594
460 215
89 139
626 98
97 656
564 156
602 459
321 548
472 172
403 702
688 656
880 360
697 678
436 446
518 596
862 187
412 726
841 508
108 165
330 123
852 228
671 608
376 388
691 207
378 734
670 230
756 543
225 511
69 48
396 416
600 258
139 142
20 306
171 625
328 343
102 11
491 512
853 818
192 321
778 156
498 261
855 414
347 239
191 342
703 858
9 298
711 703
548 629
734 868
717 106
220 151
313 156
485 422
215 797
121 299
657 656
214 95
252 262
532 176
310 674
688 606
490 778
303 140
485 745
606 495
511 873
39 646
813 815
425 118
620 319
579 546
374 418
191 680
231 495
493 560
705 200
457 391
848 881
698 738
420 108
70 228
110 849
97 90
206 343
82 161
84 695
534 17
738 436
742 404
580 311
816 229
300 14
358 284
710 705
42 597
508 216
883 60
354 818
440 471
574 542
264 645
310 620
792 155
756 724
534 361
42 425
778 357
446 463
19 123
547 43
479 13
264 114
69 769
846 16
4 124
264 193
283 175
188 352
505 220
341 334
861 519
827 667
84 160
507 555
520 240
596 315
291 855
369 671
433 186
145 270
183 882
412 828
128 583
884 796
296 797
585 153
383 744
52 423
690 727
874 8
233 128
556 300
171 726
633 487
615 275
671 13
354 871
294 453
449 601
685 882
323 177
731 220
751 17
418 327
242 3
161 828
608 496
312 173
494 149
6 337
389 467
527 273
91 859
826 410
494 260
479 208
85 297
303 358
397 733
455 107
791 525
170 489
816 555
844 409
26 552
307 1
71 40
307 430
808 393
489 578
41 126
44 402
145 456
130 316
810 458
541 554
487 30
718 686
71 620
112 355
115 516
461 528
61 438
338 221
857 527
701 646
371 351
676 68
804 145
438 34
201 414
112 815
96 164
224 873
232 292
603 727
509 840
629 631
466 637
345 628
343 193
557 267
834 688
191 29
198 811
548 594
439 707
569 438
533 339
755 351
556 852
299 453
38 866
792 322
190 57
123 118
658 279
203 190
406 625
131 314
708 732
674 604
344 103
256 813
423 659
173 572
639 473
160 329
848 614
783 448
844 754
231 168
362 297
714 194
606 76
791 74
748 485
239 530
296 838
429 22
106 165
362 203
664 753
142 738
381 108
27 583
864 103
495 203
634 593
769 212
247 825
487 821
502 526
157 97
730 805
73 850
403 33
811 236
479 778
716 295
124 751
792 303
665 551
482 284
688 607
63 297
322 245
296 456
98 801
296 343
114 619
485 889
700 736
758 426
374 419
674 723
338 496
728 152
783 548
198 12
112 205
154 494
690 236
856 252
819 496
288 632
328 437
799 419
317 596
879 518
366 687
628 262
64 701
54 792
244 446
19 619
708 269
197 768
662 330
186 115
850 42
381 212
682 755
883 142
42 594
777 541
584 17
50 693
293 803
205 23
673 845
803 734
661 228
264 646
299 508
826 391
475 735
428 687
687 555
714 759
259 312
445 29
655 446
587 476
458 152
22 521
170 276
563 279
777 833
311 613
256 789
274 649
66 392
487 245
235 100
37 166
365 729
448 811
417 796
130 123
349 101
11 676
231 65
676 210
664 698
82 243
376 44
159 117
344 697
816 307
524 252
695 101
23 680
233 16
785 889
840 420
457 849
802 446
394 444
234 831
20 470
100 132
462 807
356 366
808 733
460 316
812 553
359 679
739 180
526 250
458 188
294 782
47 66
710 273
452 545
566 789
199 788
349 167
795 53
248 454
468 203
473 635
793 532
710 51
501 366
141 236
469 751
15 736
480 152
598 644
224 157
67 569
235 511
531 125
439 233
244 71
428 126
103 316
220 504
793 80
673 698
236 882
561 109
229 503
690 587
300 358
472 707
807 369
702 537
410 580
356 93
806 555
823 715
267 213
479 785
741 78
63 86
54 447
20 379
521 314
393 143
412 253
86 200
626 17
221 875
630 713
5 122
434 500
489 871
843 784
612 211
869 716
46 558
397 337
42 128
481 672
248 661
416 821
315 825
865 484
114 784
776 275
409 334
852 230
620 10
715 358
718 570
331 750
776 625
407 717
73 59
24 593
548 44
20 645
283 865
680 267
21 29
851 354
524 132
234 435
676 686
189 877
210 456
266 502
379 323
835 84
68 845
137 460
711 590
12 820
470 88
25 647
320 561
214 93
536 821
185 329
603 48
834 38
692 440
826 706
520 361
491 358
72 611
806 98
478 243
65 446
705 206
245 189
173 432
305 760
159 696
95 415
136 686
461 527
253 627
474 832
809 201
823 312
645 740
580 531
374 620
31 197
509 203
664 718
297 671
851 145
764 694
603 624
773 348
685 106
172 67
393 698
679 205
401 871
147 500
21 275
59 704
517 167
815 786
11 434
402 877
669 169
17 578
697 32
475 734
702 307
599 153
308 357
863 405
674 530
142 228
861 660
791 713
520 99
4 156
316 158
559 194
321 816
678 212
691 107
639 353
89 701
439 369
745 790
585 782
396 411
434 802
254 419
475 434
690 499
12 203
71 680
603 578
615 47
201 279
701 578
116 166
172 400
409 834
254 236
314 193
290 54
708 418
484 119
30 447
693 357
826 326
674 114
384 716
6 343
726 326
90 492
401 399
462 804
551 62
207 708
407 262
544 328
56 402
479 496
670 555
655 413
260 802
181 614
293 124
41 467
568 412
291 535
454 193
457 355
734 408
478 346
725 187
568 762
714 297
231 23
643 121
93 210
793 644
307 155
359 179
396 447
384 479
59 223
461 671
54 854
607 622
497 715
615 83
585 4
803 93
560 838
633 272
690 761
370 317
243 57
300 464
375 524
215 167
362 681
381 155
202 830
573 797
668 875
281 389
268 472
76 510
149 390
835 123
656 614
242 37
579 126
447 246
243 629
7 526
679 653
155 644
229 539
473 105
660 827
679 233
518 297
460 289
433 188
134 550
435 37
298 279
216 180
792 657
475 691
766 843
677 250
218 753
183 609
458 32
300 707
663 168
338 413
286 645
639 313
469 529
808 133
683 711
173 365
780 475
467 48
667 843
823 324
44 252
528 177
712 814
345 779
796 635
163 150
232 499
649 443
534 362
77 213
262 105
48 37
294 249
665 410
777 624
480 592
722 300
389 395
707 128
856 838
194 885
582 704
364 692
226 565
759 349
755 426
403 257
363 517
18 107
667 378
190 821
174 670
142 184
434 519
539 292
136 369
108 117
532 759
41 180
259 13
226 232
283 403
691 14
553 17
202 65
224 393
847 659
46 182
709 670
529 40
509 488
729 481
248 221
106 135
417 592
811 565
192 484
305 187
470 735
605 16
509 187
77 407
442 116
83 596
487 740
758 673
673 609
584 132
68 125
271 696
807 474
177 261
556 218
30 49
457 691
594 436
462 700
409 560
708 188
727 240
439 660
821 492
15 421
449 269
132 278
854 479
341 248
143 438
351 51
777 40
165 315
257 315
146 152
188 355
424 394
30 830
643 465
292 257
633 733
585 578
803 333
607 177
458 120
49 653
235 102
770 871
813 579
322 778
516 278
760 438
465 622
407 647
580 624
282 479
529 822
328 177
879 661
182 175
685 60
409 833
215 301
306 715
480 314
443 430
409 754
806 803
840 80
2 530
42 711
241 365
202 402
24 245
635 573
321 437
80 60
191 216
854 392
436 128
494 506
385 838
388 35
644 252
14 12
23 326
677 197
291 534
296 160
792 805
18 853
810 457
643 235
421 761
256 496
173 264
417 830
434 711
337 400
110 767
491 536
607 766
261 552
115 69
823 325
418 132
38 677
846 124
754 828
779 133
55 785
841 604
318 260
788 44
759 715
726 496
102 574
328 583
837 842
843 645
290 543
735 499
77 709
833 367
542 273
69 821
549 635
207 731
854 118
213 118
374 43
857 3
5 683
388 293
541 489
356 753
469 318
680 659
130 364
248 820
856 116
182 696
193 421
766 554
602 523
783 626
840 390
633 209
257 211
775 881
745 408
604 116
879 306
306 866
172 782
798 110
217 659
308 254
407 224
378 390
285 218
198 677
137 67
488 361
215 654
630 555
575 126
506 405
52 753
705 817
106 689
514 712
680 736
368 124
691 480
406 312
120 604
108 133
689 592
676 298
126 481
19 765
559 511
266 626
625 535
810 675
563 873
510 98
771 402
595 440
68 344
681 551
741 639
234 426
859 748
145 866
79 489
392 657
663 593
45 491
323 217
716 608
617 253
247 302
234 695
241 209
47 631
51 624
293 659
4 858
30 754
200 729
165 425
403 284
365 659
702 19
406 572
469 148
164 614
796 146
342 620
715 450
844 678
832 166
559 189
198 111
145 369
41 800
887 625
305 875
75 577
157 817
813 356
870 799
525 432
193 655
130 152
439 134
619 65
859 712
92 217
850 13
188 740
385 360
404 60
775 95
270 605
662 439
78 318
234 536
741 87
29 123
621 513
199 431
350 553
186 598
134 286
797 118
233 593
57 227
406 580
801 151
706 35
288 136
569 233
403 681
65 90
545 848
655 415
669 719
855 740
700 683
154 259
528 636
783 488
635 311
97 725
52 533
844 601
451 637
862 397
554 578
478 634
598 667
475 400
25 417
609 35
516 696
693 564
310 236
747 635
875 590
695 251
205 75
479 636
241 447
225 742
214 362
146 650
171 101
85 503
341 861
640 492
845 413
96 740
463 735
431 317
229 618
456 790
403 709
601 148
198 378
498 716
448 473
331 308
47 464
486 656
301 293
474 794
130 62
97 49
226 407
173 252
629 19
520 633
68 357
470 689
549 498
297 817
432 24
159 364
56 579
834 650
840 67
864 857
438 300
615 420
11 314
272 814
21 365
404 267
284 352
123 200
143 47
493 86
789 729
96 640
694 686
626 48
749 182
787 105
66 202
434 358
772 386
296 347
122 213
269 184
255 275
574 157
562 765
89 309
757 878
856 81
478 385
705 451
374 321
89 727
130 403
741 779
690 123
782 667
62 781
121 343
760 378
172 280
84 700
31 87
822 358
22 382
172 431
580 316
374 781
638 206
803 23
346 470
788 673
278 583
157 875
190 441
320 882
483 286
52 297
682 819
632 590
725 767
860 678
846 625
32 499
235 540
246 444
122 134
491 327
716 180
19 348
79 596
759 246
50 378
285 737
549 788
678 120
807 604
41 150
834 461
636 577
884 635
226 381
686 210
235 233
296 883
649 689
482 578
177 176
196 724
533 563
582 355
59 180
822 723
861 119
562 180
447 650
508 420
549 394
163 195
92 43
241 807
607 644
561 500
145 845
375 724
524 335
418 126
863 784
389 303
318 671
824 512
91 3
555 496
95 60
224 543
122 742
673 222
677 830
548 650
850 590
137 9
322 23
859 292
134 430
82 774
269 286
143 261
429 728
247 881
700 565
312 750
174 724
122 13
268 681
681 128
536 701
867 173
446 552
273 150
22 779
460 764
815 58
341 608
844 694
463 92
653 60
377 155
405 339
244 173
761 125
559 438
605 180
291 84
58 681
121 271
642 81
721 552
343 237
97 502
718 367
225 426
604 402
788 345
409 532
379 458
234 347
833 801
299 141
245 889
157 231
461 177
601 686
638 883
450 53
602 179
165 415
545 17
485 622
308 425
772 280
668 345
108 366
535 555
147 858
117 712
319 632
731 616
498 717
818 684
482 185
507 726
532 845
5 587
766 552
452 656
244 165
218 798
183 768
611 861
888 694
391 311
304 487
362 165
533 762
211 425
7 632
182 250
510 215
58 316
31 3
111 817
153 401
34 148
806 798
384 75
853 531
34 7
196 266
397 860
247 324
158 350
806 474
385 738
795 663
688 453
56 111
748 604
416 119
808 665
811 286
374 154
809 881
636 856
246 355
837 42
839 85
79 736
251 427
478 273
761 219
248 258
841 275
571 598
255 193
573 188
334 752
89 583
793 833
413 656
175 625
44 332
887 802
750 794
179 739
805 635
112 654
339 489
196 38
270 805
509 41
99 821
206 123
746 84
214 582
395 280
15 531
841 824
510 429
727 284
855 459
358 737
374 854
452 366
427 24
869 76
267 512
472 558
91 196
170 221
322 48
142 863
808 855
570 794
241 160
132 273
354 368
282 725
337 614
692 408
19 238
242 477
65 124
377 501
330 840
216 53
364 95
648 60
80 558
246 95
179 146
108 84
183 682
705 174
847 368
408 735
539 219
359 58
6 707
448 863
427 555
500 99
211 496
305 75
15 800
505 636
839 675
45 479
558 441
491 718
93 654
559 94
534 273
628 180
612 529
426 402
327 598
189 657
171 490
466 546
12 666
676 625
850 700
502 587
159 746
721 169
601 627
655 842
238 160
556 181
82 884
751 723
809 824
283 129
173 722
728 311
752 141
667 468
886 216
179 238
640 876
718 769
700 276
744 228
658 768
472 275
182 578
700 395
41 770
244 831
67 798
174 38
685 490
207 90
559 433
176 646
571 271
274 795
791 258
282 318
232 765
15 772
58 281
379 751
234 166
662 132
296 541
615 220
29 537
345 860
348 337
132 774
674 321
713 317
328 797
807 415
480 584
471 394
418 242
310 271
815 865
119 436
434 328
204 406
828 824
372 748
765 339
108 570
668 271
5 212
461 402
816 751
548 830
806 270
38 868
483 55
730 28
308 519
847 839
783 187
169 245
599 284
808 476
458 221
633 553
226 81
795 103
139 763
17 219
202 41
829 156
870 616
508 809
303 666
96 192
73 62
854 809
780 132
107 664
862 536
283 789
487 589
770 257
436 522
584 74
46 790
720 265
792 134
665 696
379 164
422 464
322 92
161 346
694 684
420 753
43 794
493 886
484 591
303 149
296 349
79 626
658 23
627 166
136 373
412 642
810 272
4 308
579 696
321 728
168 53
387 469
117 126
409 301
844 611
700 34
884 775
529 846
864 315
202 702
594 876
590 704
757 337
723 481
447 737
487 736
376 867
402 565
609 331
465 83
346 246
860 275
312 192
439 656
123 558
9 335
584 501
307 622
548 656
405 657
320 739
146 355
493 56
132 888
636 40
717 873
518 346
765 637
570 637
760 739
523 641
26 590
835 512
587 419
758 392
795 190
528 531
621 128
136 736
598 400
783 518
611 775
259 250
122 586
32 671
514 239
771 228
274 820
135 885
774 729
75 672
442 165
870 237
849 422
685 56
558 446
784 279
73 720
318 562
552 642
665 421
195 82
695 257
439 583
171 493
437 698
717 90
845 684
250 604
205 134
544 766
161 32
199 424
863 577
498 227
467 784
638 567
806 377
699 657
132 246
52 45
759 438
247 194
221 547
796 423
298 463
544 43
469 294
700 678
810 290
279 37
737 687
886 507
762 723
490 408
880 768
572 78
10 675
432 273
201 212
864 372
10 562
158 650
745 348
205 661
634 725
533 823
64 618
484 419
49 250
55 292
662 372
283 794
72 436
115 502
246 796
358 686
665 306
4 767
726 500
566 365
489 591
730 106
385 821
425 352
389 197
66 114
658 98
42 251
540 878
673 331
782 215
204 859
612 168
354 168
265 570
783 344
491 414
81 213
865 397
49 632
348 467
199 758
317 871
321 620
658 869
596 233
690 82
420 455
10 583
871 486
12 57
699 337
58 331
791 289
372 111
325 351
42 839
181 51
44 724
861 488
698 778
510 292
67 313
127 549
438 432
836 3
90 877
807 386
256 166
172 778
751 86
20 182
4 723
756 760
170 231
152 358
412 168
363 730
458 570
30 471
347 562
207 778
320 422
859 415
74 637
146 261
297 43
316 769
62 357
636 858
602 294
532 353
827 740
305 754
495 610
808 215
738 8
291 816
705 482
26 94
300 849
323 641
89 871
220 15
495 135
49 177
395 397
533 879
205 302
387 801
621 870
52 108
676 889
366 771
35 236
426 444
544 653
629 552
851 610
638 830
252 237
859 63
698 499
727 124
218 92
294 345
186 702
668 590
461 456
583 605
29 181
776 751
78 738
420 613
652 824
374 228
29 471
655 391
326 37
454 110
443 795
249 88
198 99
373 199
504 138
340 496
264 200
287 184
317 625
453 337
55 61
7 446
448 639
669 850
811 720
337 329
483 752
585 500
46 514
513 255
77 152
538 858
579 362
542 866
320 802
45 459
71 190
209 194
795 672
688 304
530 591
385 312
472 26
484 309
544 735
542 318
198 624
159 778
146 471
479 105
303 223
730 169
125 37
198 387
77 231
863 503
167 444
754 354
762 873
360 746
783 327
397 8
571 837
131 228
799 701
670 719
522 273
639 434
531 391
594 753
131 117
633 877
383 449
813 674
67 768
865 179
629 394
277 293
16 81
261 881
429 443
449 866
466 192
144 324
348 188
573 565
124 667
327 790
323 119
377 841
366 827
591 262
854 604
495 258
589 178
47 557
461 319
265 236
507 65
540 585
603 42
638 592
470 422
207 817
479 60
674 882
804 805
803 842
488 408
407 288
798 563
772 426
354 169
762 794
212 319
599 445
70 821
403 566
887 358
433 399
454 39
455 762
4 338
482 180
49 639
822 850
749 274
164 152
572 71
136 697
753 672
295 839
743 325
429 253
514 293
808 26
793 874
376 508
183 35
295 677
6 536
580 437
197 131
510 218
653 400
676 838
812 134
564 743
328 827
205 571
681 889
466 601
545 32
204 293
872 327
411 581
431 526
787 286
494 234
137 501
48 648
360 138
363 733
328 616
721 247
189 441
280 459
851 788
609 858
264 95
824 119
640 665
697 492
473 873
240 44
41 45
374 443
490 684
863 237
331 468
389 764
191 800
348 689
294 555
509 482
127 55
171 793
409 220
50 150
141 301
865 251
296 810
154 136
379 843
721 629
439 814
874 29
324 126
161 594
524 167
124 707
875 637
548 301
314 167
824 616
272 767
457 693
884 372
560 98
859 62
149 440
833 671
21 766
366 444
631 368
777 82
783 76
576 756
242 856
291 608
383 206
862 190
331 355
191 759
710 301
13 211
457 473
406 386
347 22
122 471
193 608
767 394
258 60
580 751
399 797
457 453
714 484
295 621
72 188
23 563
162 405
646 675
372 326
214 609
626 545
681 800
793 158
43 267
234 498
841 682
834 677
546 209
30 422
90 213
756 642
759 765
741 82
116 656
100 61
602 219
622 158
117 36
441 647
886 531
806 368
826 530
472 218
808 596
701 503
47 229
255 326
649 789
240 116
147 544
653 854
321 789
316 40
300 613
66 579
361 593
236 279
594 641
136 621
66 754
514 350
18 625
411 696
171 865
667 868
28 698
305 27
583 456
839 610
2 29
513 399
434 592
461 873
163 405
452 124
514 19
50 531
181 459
440 715
132 769
432 863
803 416
641 13
668 866
483 636
779 187
510 635
295 85
209 156
214 367
59 638
6 298
100 209
191 250
690 340
584 636
807 770
848 817
568 464
198 383
290 874
147 719
114 550
577 134
820 302
861 582
255 459
61 158
264 480
47 479
395 598
639 337
434 563
451 719
214 692
349 421
139 299
699 339
205 550
776 712
335 871
780 48
214 860
454 854
626 647
7 22
785 680
36 486
186 471
67 456
470 775
147 480
461 192
688 12
393 864
600 840
185 6
370 58
372 604
377 878
772 587
54 403
475 714
4 876
777 164
483 199
858 57
622 86
218 152
661 538
63 336
786 189
829 761
265 378
511 787
437 604
79 639
174 673
296 239
47 2
325 876
566 826
464 208
796 827
425 687
132 618
221 94
224 238
791 214
705 401
50 870
615 230
788 575
41 650
25 13
334 1
281 187
837 406
314 53
777 699
723 339
766 151
817 882
744 448
802 32
396 785
702 473
6 464
356 29
67 194
786 620
859 174
807 23
291 799
111 491
96 784
872 209
865 888
772 476
757 698
829 285
189 190
62 180
692 11
144 609
584 771
752 357
201 737
499 647
574 269
828 168
791 20
424 190
122 327
196 578
98 316
417 644
516 428
75 724
884 870
693 824
413 678
783 854
363 657
519 285
232 419
84 588
289 684
550 801
37 882
385 241
483 754
855 378
196 149
96 257
190 463
137 705
11 232
270 551
807 324
555 503
508 101
171 127
82 590
449 369
266 281
603 16
692 476
241 247
260 319
333 735
228 459
800 732
177 819
87 272
384 627
204 76
321 168
643 647
576 674
119 16
446 352
639 713
691 256
770 689
832 506
207 482
388 328
782 24
251 486
179 69
559 238
888 560
287 376
877 392
26 242
597 889
654 496
101 751
629 57
443 116
633 175
448 605
196 491
559 519
318 578
339 421
875 695
381 147
662 506
688 97
466 627
157 147
730 855
815 201
716 678
59 625
8 765
369 422
815 579
754 83
241 108
205 402
373 551
635 828
363 430
809 792
386 874
114 551
244 714
248 525
688 794
71 151
295 202
782 871
142 454
409 341
84 81
141 182
606 58
258 114
574 366
745 726
151 43
153 201
510 73
202 646
701 672
743 37
653 317
380 589
653 398
417 430
148 298
478 773
764 538
780 791
234 297
72 68
880 747
348 416
224 766
122 511
747 746
437 118
42 646
483 488
502 516
46 794
411 605
367 858
316 728
214 251
114 391
795 618
518 370
708 516
786 186
688 728
848 798
23 278
791 813
175 56
490 682
198 235
451 797
568 715
752 88
46 430
574 481
98 422
760 418
780 433
851 43
54 790
611 683
172 421
400 536
99 824
633 32
845 795
722 230
25 814
409 655
285 484
15 655
383 144
5 100
33 484
478 762
185 33
835 59
545 23
678 769
518 329
649 29
222 300
441 587
557 781
359 621
469 157
518 632
354 111
9 664
69 552
363 263
31 48
874 665
342 615
41 152
11 577
571 393
296 889
387 322
886 258
231 123
789 419
537 698
538 229
887 876
791 362
55 431
277 816
345 550
495 21
188 739
381 142
312 491
336 273
299 167
120 392
765 104
149 361
668 655
372 614
245 784
232 209
342 394
492 547
491 667
461 280
745 233
385 700
356 129
52 186
17 694
77 249
170 476
557 736
523 592
562 605
548 361
697 662
574 204
72 655
112 176
408 657
500 319
176 605
835 798
748 101
605 492
130 418
193 578
469 384
219 718
171 867
702 670
7 803
509 138
168 446
222 753
770 391
721 691
666 212
867 845
615 219
263 70
357 167
200 126
699 132
52 546
278 513
840 46
368 863
186 416
651 118
204 316
629 734
502 569
543 317
347 268
497 159
775 350
447 249
57 768
61 728
522 858
725 689
520 375
454 888
285 233
60 391
523 717
514 764
123 734
201 696
18 798
368 167
494 497
297 237
562 675
412 554
183 745
424 232
250 326
608 604
774 871
387 269
887 566
122 380
36 44
774 758
97 74
173 245
434 739
420 338
323 681
876 459
836 873
177 476
115 184
443 369
432 238
253 26
665 496
176 227
395 323
256 11
183 480
132 630
779 217
11 307
259 781
793 453
595 593
49 481
693 164
87 245
553 785
85 404
379 187
110 57
207 865
765 739
7 762
428 845
398 13
282 618
9 786
91 698
231 402
846 275
329 414
169 101
585 685
71 378
19 551
139 619
305 839
176 365
540 417
783 136
748 316
396 489
434 820
5 843
27 655
157 756
676 48
447 671
728 735
242 591
63 591
12 319
510 324
599 766
730 746
683 618
536 351
186 344
727 139
358 618
54 339
664 3
223 440
209 218
263 573
747 870
821 499
270 282
310 747
282 684
381 670
330 739
848 876
833 216
35 778
731 569
523 789
127 353
53 590
478 213
144 769
615 669
815 47
457 431
153 870
488 642
334 321
172 356
487 349
163 123
628 365
639 325
317 766
250 707
1 229
410 877
270 779
93 648
99 855
300 486
702 665
746 197
879 483
534 666
671 279
341 833
163 661
826 319
755 335
521 148
787 57
299 755
29 262
35 857
721 478
235 654
363 341
397 4
406 306
490 370
884 725
532 807
359 820
714 37
295 812
174 155
803 556
168 272
817 642
612 846
296 628
478 668
120 88
448 607
837 364
710 746
447 437
493 439
24 60
280 166
135 280
437 16
51 492
99 593
48 273
195 450
498 177
51 515
380 205
532 50
5 222
119 208
428 731
830 394
393 261
787 85
735 267
78 734
14 70
153 738
38 459
577 155
490 692
752 175
218 711
282 856
834 413
340 86
412 555
643 161
279 181
563 118
856 236
766 595
179 833
62 654
174 68
306 324
102 218
72 793
386 351
6 540
619 477
175 715
399 711
400 687
846 276
22 362
337 260
139 10
345 785
72 247
883 273
872 542
214 573
730 535
824 592
472 90
579 294
564 658
312 275
68 711
270 319
627 336
777 169
288 89
15 158
494 443
242 432
807 592
307 212
130 551
204 884
109 817
340 251
292 358
153 536
340 106
749 754
786 380
2 271
403 820
724 464
121 125
277 488
830 732
68 419
269 884
880 845
510 24
597 672
857 595
305 177
513 500
508 408
520 748
375 680
504 303
436 604
537 111
121 554
840 24
266 14
3 119
72 497
720 461
684 40
264 547
157 168
458 889
220 584
132 506
134 152
601 751
30 473
531 724
199 450
717 1
778 391
692 321
574 869
10 802
872 69
837 777
811 482
617 407
880 249
235 532
347 642
677 326
772 110
460 498
133 404
549 796
170 683
174 819
18 871
776 327
101 790
5 243
526 439
748 3
753 659
576 180
865 170
442 333
867 484
144 447
185 677
409 45
282 293
230 439
451 422
757 398
840 165
758 667
674 308
196 144
223 761
158 473
603 375
276 255
370 238
557 282
831 335
194 768
747 692
533 465
661 268
220 556
66 326
466 684
533 322
347 339
830 431
787 459
132 252
136 247
247 43
331 37
332 378
448 327
145 153
532 595
834 263
448 502
606 291
633 191
395 558
748 208
847 684
259 79
334 529
266 721
249 582
323 843
179 712
143 886
576 15
480 148
852 436
362 216
542 647
118 565
549 453
828 284
301 252
31 23
183 248
145 801
543 25
196 244
141 821
54 254
388 550
744 396
108 787
888 843
87 211
744 170
526 614
797 81
601 592
565 166
313 477
544 367
605 778
877 37
695 852
545 779
435 95
174 191
84 237
654 177
676 425
179 211
581 468
359 490
783 580
537 598
115 638
442 402
653 88
614 503
20 538
73 432
756 147
432 17
270 849
665 69
370 453
662 298
336 332
779 74
110 247
177 525
380 12
225 793
281 543
381 406
207 205
814 351
432 556
241 188
11 424
214 105
380 321
241 13
385 875
781 737
706 537
342 781
463 555
504 696
543 855
624 729
472 150
796 17
469 375
640 525
528 382
678 164
792 871
452 814
403 105
239 871
813 596
500 369
743 279
265 826
278 16
883 545
884 782
170 776
409 80
598 728
182 303
384 402
813 391
542 735
741 613
379 684
107 637
91 272
680 467
290 38
774 284
208 355
263 743
410 767
63 188
30 79
197 678
695 427
815 806
542 42
265 222
461 697
806 623
705 600
282 758
480 853
534 841
518 450
521 382
320 617
707 391
461 852
189 329
592 212
283 189
764 306
839 416
805 272
477 767
423 761
856 280
585 766
431 210
799 711
639 388
198 202
239 778
420 208
448 137
486 849
679 750
828 164
277 410
770 399
184 866
157 805
747 77
559 604
837 84
172 501
653 322
55 424
851 185
522 414
483 758
96 261
767 555
453 671
310 824
480 531
7 888
101 109
102 702
342 393
418 345
510 723
295 61
102 521
216 616
185 435
77 837
669 129
601 635
52 133
497 466
643 651
460 305
282 561
716 66
109 871
661 56
826 881
354 14
248 757
800 156
607 158
772 784
663 152
848 519
300 352
386 87
874 410
748 503
326 805
143 881
572 69
633 81
117 160
763 722
841 188
658 538
693 792
883 390
666 160
121 391
291 445
113 648
719 842
67 467
432 852
732 455
465 156
38 547
185 237
349 802
584 421
57 43
384 821
115 285
685 729
264 843
266 313
797 80
329 820
462 618
744 73
707 351
518 293
412 400
435 49
164 593
36 619
278 440
10 739
331 302
602 623
480 877
387 481
750 415
421 642
887 563
783 756
780 94
306 275
415 53
534 149
172 302
887 849
714 313
388 206
225 461
813 68
11 86
430 620
462 317
438 314
557 208
695 326
163 625
22 501
318 446
485 471
198 656
275 105
646 168
144 660
52 125
859 359
346 862
449 95
711 355
623 375
860 843
256 761
204 231
646 613
290 792
131 260
824 123
9 864
823 221
430 272
312 687
259 488
867 159
160 355
532 763
429 825
36 877
221 439
524 650
59 309
488 681
340 330
418 684
61 496
338 151
20 575
283 181
44 325
875 853
254 146
816 261
508 189
141 666
79 498
379 540
147 402
185 843
96 378
834 552
341 584
627 99
129 796
102 659
31 399
674 99
273 570
20 337
521 492
206 572
749 255
844 21
223 232
5 421
248 875
528 877
545 833
532 441
865 748
706 500
397 29
678 118
829 506
155 882
679 607
748 238
273 160
4 272
724 391
283 331
340 392
281 123
754 682
117 90
793 699
433 4
571 506
310 322
165 581
442 314
141 476
36 246
36 838
324 201
186 182
793 352
524 464
727 315
347 183
72 382
815 709
345 267
406 794
651 701
123 138
535 827
720 88
42 124
868 32
296 511
56 415
477 593
209 647
851 658
621 203
64 152
541 394
752 21
727 231
226 164
836 701
460 85
221 511
314 707
848 124
505 709
748 263
145 628
442 222
139 146
487 322
442 65
82 88
873 355
31 227
64 610
693 569
243 4
618 88
730 574
290 111
270 702
493 325
472 576
806 549
393 40
20 423
108 563
840 21
595 663
742 538
502 735
129 663
854 19
421 252
227 37
49 773
22 592
424 319
429 562
783 307
808 453
100 531
705 252
516 188
762 118
430 70
535 481
196 647
861 147
663 413
746 821
429 7
686 81
173 2
418 875
63 599
675 81
794 353
758 598
281 338
254 849
452 156
42 609
223 563
803 723
238 404
95 629
564 524
466 739
845 37
759 675
371 610
323 263
9 695
867 100
414 637
243 717
356 468
86 149
425 213
160 390
839 446
596 593
283 64
491 485
740 656
433 428
221 261
574 283
430 499
639 371
568 720
679 708
59 308
120 838
710 117
412 808
236 740
84 848
340 698
883 464
538 61
296 672
525 273
331 413
888 41
689 8
451 237
606 599
132 816
401 849
183 339
140 550
725 817
742 881
135 349
569 285
555 286
685 761
730 776
161 19
553 881
574 665
669 269
312 16
702 317
566 476
96 790
692 580
65 217
449 58
251 242
495 550
347 647
320 265
22 536
706 356
362 446
491 94
216 597
848 541
460 723
222 877
875 133
399 794
496 613
760 306
867 630
106 236
589 753
755 761
278 796
182 184
444 739
379 586
159 152
404 81
707 762
851 296
102 850
569 607
862 872
426 408
688 123
217 565
259 824
483 470
651 815
151 614
557 569
775 390
646 369
61 719
191 348
564 282
682 173
97 667
846 600
649 60
191 429
363 440
243 818
544 437
764 336
285 553
208 570
735 70
187 596
390 843
248 614
89 378
97 839
39 860
154 390
496 675
457 216
775 610
45 833
616 771
323 547
676 229
862 264
884 832
64 325
746 865
76 808
684 687
386 486
875 734
615 65
690 280
451 276
474 735
275 546
135 118
393 659
379 598
96 180
243 7
341 670
560 33
483 498
599 113
56 239
147 24
502 732
271 187
130 829
377 550
133 311
691 757
104 441
860 784
360 594
147 724
424 463
246 98
448 469
835 707
431 148
291 545
191 820
800 408
698 735
880 214
117 17
841 505
177 245
306 467
804 86
112 526
136 878
376 115
158 751
361 481
127 607
879 321
258 547
703 663
9 456
409 550
466 593
360 468
254 560
742 805
601 663
87 240
548 614
256 302
462 588
747 782
87 353
518 485
303 441
532 321
221 832
596 228
298 362
507 816
770 704
545 308
97 572
355 228
856 319
127 328
681 180
106 565
571 645
183 603
312 544
575 545
283 353
142 420
62 735
466 316
628 624
6 722
430 210
498 772
515 104
461 712
387 765
747 243
451 462
254 1
662 120
325 314
861 408
755 653
871 227
84 567
2 766
684 262
243 78
251 619
487 619
309 327
863 800
538 847
474 425
246 419
834 601
67 58
622 424
220 580
259 876
523 255
337 800
511 399
733 642
312 162
122 569
782 459
159 648
458 583
518 449
433 771
584 733
804 790
848 210
838 573
30 526
363 364
436 464
189 40
652 640
865 595
238 719
593 588
458 258
433 463
490 648
445 352
799 593
884 591
169 358
154 466
505 446
516 260
338 230
620 208
54 682
98 678
90 547
234 38
564 439
831 695
568 809
359 669
721 585
97 343
6 875
77 318
114 755
46 523
517 535
299 42
137 347
178 788
241 232
39 53
290 525
574 773
368 324
482 468
449 5
143 733
342 840
377 363
677 358
626 334
602 743
469 300
535 761
882 567
294 649
524 622
652 571
249 146
178 174
397 144
856 21
72 516
383 345
207 47
432 267
420 292
757 509
589 660
385 52
405 57
888 499
585 390
419 450
363 62
660 184
603 294
811 866
115 369
868 785
263 499
102 601
462 625
569 453
589 58
826 476
773 179
830 316
725 714
692 261
380 313
808 139
274 234
411 783
178 526
666 779
39 319
117 555
445 228
568 105
127 454
56 445
621 28
142 175
436 392
754 447
294 858
633 566
669 678
879 192
700 348
293 146
173 444
396 157
182 650
109 618
365 512
187 736
282 212
301 280
776 595
734 152
644 794
370 829
371 492
374 737
456 302
317 607
780 89
582 123
516 611
888 416
282 281
202 528
230 194
243 117
85 858
680 394
832 581
410 743
261 272
299 229
869 92
564 526
720 260
811 223
389 13
180 390
455 252
170 124
850 522
377 592
513 762
764 443
34 590
517 35
652 782
264 215
692 63
551 324
131 265
313 622
743 732
523 751
283 66
234 82
857 105
282 790
108 100
226 251
725 147
307 358
455 614
443 870
340 486
328 422
880 243
112 333
250 471
93 107
793 845
831 781
288 855
426 753
297 655
694 398
804 218
374 798
361 109
765 236
348 492
435 67
90 855
328 832
846 134
869 239
372 521
661 243
55 516
204 322
349 871
380 131
815 659
194 219
623 182
494 382
817 767
61 794
449 56
621 450
626 472
136 62
9 816
191 536
416 798
625 16
346 595
274 468
477 763
155 123
752 157
287 90
282 874
363 141
493 514
253 694
607 311
282 12
780 402
638 426
738 260
727 752
344 539
102 118
747 367
384 225
22 771
242 621
6 872
818 398
381 22
745 211
727 327
341 760
741 359
494 73
11 565
350 648
717 32
494 171
189 391
685 514
602 160
252 489
661 489
235 614
290 637
26 663
514 864
147 845
494 628
709 771
89 94
863 14
82 536
245 212
50 482
535 361
231 182
135 101
416 631
737 789
370 790
277 442
403 883
247 648
171 856
600 138
841 160
534 141
58 698
28 802
488 627
699 447
586 839
294 166
202 588
793 39
747 472
182 53
699 778
348 468
745 88
283 525
773 400
137 374
817 468
216 729
786 541
743 2
506 273
699 694
332 437
761 797
688 421
657 554
347 592
611 319
523 629
283 200
131 426
375 446
403 576
585 698
86 473
472 477
808 343
520 43
257 608
135 515
130 385
258 74
535 83
740 819
323 513
490 114
411 100
429 405
344 723
449 836
723 446
159 338
91 440
715 876
883 132
873 126
148 16
519 3
388 519
760 808
747 738
622 402
368 592
389 12
621 699
548 759
856 628
878 453
40 641
739 769
856 739
237 468
204 227
460 373
464 624
478 81
62 272
265 754
514 731
182 885
348 613
2 423
178 228
93 471
810 481
207 339
568 723
164 166
830 631
295 797
174 106
603 820
617 624
466 92
196 373
586 189
245 704
799 179
280 855
766 13
56 766
20 793
717 328
862 47
314 284
544 881
580 87
638 805
829 848
349 870
742 598
506 329
235 637
109 92
200 712
223 212
78 745
658 333
853 158
786 41
835 245
652 642
412 331
454 101
539 129
344 847
582 839
283 764
457 33
790 237
386 255
371 423
770 153
534 230
561 549
385 46
563 707
585 31
96 60
831 518
466 866
270 786
641 398
570 284
628 10
693 594
452 288
475 65
572 593
817 350
788 425
385 490
812 471
634 889
671 284
582 745
307 553
224 557
665 636
532 148
660 833
475 525
518 419
764 397
750 200
695 729
557 728
407 273
100 773
454 788
630 413
9 851
89 93
169 21
744 671
827 712
19 503
260 779
64 156
468 118
306 121
454 65
700 297
204 664
615 702
71 456
753 689
183 818
114 877
151 464
411 399
880 828
165 660
582 111
20 524
353 781
55 26
516 536
811 664
847 238
219 789
229 404
11 33
91 351
58 12
205 491
310 878
721 853
777 587
307 660
9 872
360 10
384 778
854 309
234 271
622 209
364 577
186 637
447 415
416 10
557 683
9 109
568 252
317 439
393 415
291 708
22 596
47 131
611 28
320 227
691 501
835 708
179 168
307 415
705 240
506 245
122 418
710 355
179 217
161 870
518 858
454 316
93 148
478 438
80 769
709 314
747 123
537 133
680 48
49 423
432 297
162 670
469 770
292 781
67 519
585 70
475 378
695 14
77 371
855 324
665 504
667 646
584 232
586 602
650 511
101 95
87 28
272 797
217 739
647 367
502 652
359 781
750 422
15 324
377 598
178 673
214 99
111 473
199 138
809 722
518 762
5 477
744 825
673 355
839 442
397 355
296 330
334 774
140 459
195 880
834 329
61 184
139 530
377 3
50 427
365 738
443 888
193 519
72 606
734 208
112 335
466 458
796 578
304 256
145 560
791 345
461 854
64 640
852 345
622 167
14 818
814 789
214 737
823 89
384 182
205 290
379 28
621 858
162 503
256 112
883 99
280 118
308 16
263 279
90 853
31 176
280 229
266 408
30 433
487 306
197 672
66 381
697 197
52 547
310 624
114 81
126 70
693 49
859 297
221 816
260 476
191 292
428 666
56 25
540 827
173 830
228 319
639 735
507 864
869 562
49 833
770 675
255 343
256 841
494 713
723 641
498 692
288 97
607 19
313 761
562 656
487 145
374 269
804 292
239 641
518 802
10 801
89 572
175 426
666 39
732 219
400 750
629 828
870 105
484 444
175 889
234 199
785 733
607 794
461 92
347 29
310 131
48 414
416 402
350 767
702 528
775 220
869 1
793 389
682 887
313 232
811 25
406 799
40 715
661 503
683 99
846 557
617 491
393 273
754 180
294 83
451 70
326 339
652 679
726 784
430 333
568 430
517 283
246 181
142 496
127 146
810 422
886 69
879 772
880 174
488 742
235 339
192 398
755 729
851 234
366 166
382 480
690 743
73 767
720 622
183 761
232 280
59 439
197 582
774 222
725 772
372 476
135 272
52 466
548 511
508 44
627 94
693 343
96 517
198 69
746 451
54 386
318 23
854 421
513 659
4 770
575 117
62 24
322 253
216 279
696 33
109 180
458 380
424 292
855 555
356 738
765 794
269 21
142 349
683 523
248 390
433 276
230 645
305 850
73 206
84 825
384 655
822 763
609 238
58 348
97 434
888 419
123 329
376 119
250 656
296 600
470 560
112 736
305 367
548 317
756 440
226 592
427 203
623 159
130 874
632 578
433 795
285 858
289 287
670 332
15 230
881 118
611 349
282 627
494 562
79 576
652 664
397 499
611 59
244 560
648 414
373 69
710 332
18 650
679 707
549 211
528 338
435 636
20 598
576 78
79 218
71 838
607 656
385 113
11 27
429 264
676 799
510 333
533 227
385 275
777 561
744 444
462 355
881 581
681 833
81 125
375 887
266 409
185 47
663 838
871 675
693 143
241 192
518 42
77 858
498 241
412 129
518 453
484 819
548 868
697 422
679 210
653 750
155 350
434 314
472 121
66 849
296 157
44 739
710 168
577 357
26 229
66 738
533 722
712 555
107 419
231 343
689 845
174 247
811 702
244 127
508 436
568 813
201 260
258 709
685 42
185 873
669 455
162 139
224 559
342 98
513 694
384 590
243 539
503 213
469 101
501 436
359 570
39 740
562 595
493 701
133 496
155 88
320 8
336 818
66 599
625 492
629 492
28 543
654 511
697 856
5 889
466 403
685 364
153 107
818 335
214 844
305 96
241 866
102 17
417 415
101 327
127 567
58 10
222 630
873 391
489 398
698 90
115 452
225 644
727 213
52 467
105 335
379 312
695 488
533 509
720 284
155 587
462 629
780 682
293 713
129 632
189 424
431 351
199 275
460 253
155 331
506 399
389 856
359 606
485 751
89 14
564 25
527 151
549 843
145 125
4 176
61 33
835 710
87 781
246 326
161 753
282 208
553 663
602 537
628 537
634 438
880 858
344 551
475 463
810 844
867 693
615 19
706 877
44 239
835 593
174 414
837 422
452 68
324 414
388 627
581 707
346 148
132 527
564 522
595 712
744 142
699 614
4 181
606 346
617 273
233 536
825 188
845 257
151 624
719 771
482 408
543 863
752 486
71 78
91 692
278 492
796 105
568 504
79 752
887 345
144 799
648 415
429 818
545 521
585 548
169 269
540 260
580 873
782 761
878 870
709 284
639 95
288 764
64 275
637 618
413 608
20 710
685 180
27 566
305 168
521 598
10 335
206 75
723 351
401 843
440 655
883 101
704 624
452 350
24 125
336 447
266 390
509 652
517 591
167 74
212 849
254 672
760 549
815 671
606 659
285 140
640 421
569 1
532 243
354 401
247 94
274 46
310 656
223 209
155 337
621 446
852 57
653 579
783 192
494 702
263 625
126 593
99 761
36 825
143 874
866 120
867 305
412 612
343 816
269 655
609 164
379 866
395 249
607 614
77 471
719 88
775 794
282 349
16 769
171 687
559 624
157 496
448 764
676 828
699 117
451 92
285 477
659 592
592 733
561 854
569 323
589 17
497 121
354 450
280 481
423 326
241 124
688 445
329 657
471 570
131 423
829 708
131 308
669 812
360 636
269 158
240 18
244 762
227 492
344 16
662 526
98 3
641 769
878 572
406 443
636 630
178 58
144 246
788 839
221 504
331 536
705 267
374 670
545 674
359 78
250 523
629 13
281 93
386 480
67 701
159 213
689 74
862 661
864 208
171 280
138 419
362 645
869 210
711 819
668 742
461 160
600 536
194 236
509 549
384 700
303 419
358 778
613 768
66 69
108 712
373 732
472 131
863 473
660 565
681 246
493 676
222 98
726 818
532 751
183 589
221 314
630 158
653 877
670 789
340 88
865 271
600 76
265 773
451 698
507 569
22 151
650 836
886 470
409 210
676 176
465 667
72 771
490 726
864 303
513 486
197 885
385 107
594 779
686 203
87 350
396 685
756 11
680 399
538 885
509 849
742 253
409 703
656 648
120 459
708 180
447 32
55 575
459 414
142 673
777 838
874 605
68 713
683 28
483 242
156 180
403 277
321 108
178 559
223 13
761 686
173 872
375 326
757 602
501 284
450 554
805 500
297 165
724 260
356 640
730 405
454 125
674 202
831 62
249 62
112 322
10 667
374 710
850 355
561 284
65 878
784 125
412 854
16 151
54 883
455 784
296 679
98 527
766 284
261 605
674 294
620 686
253 51
863 814
438 367
725 826
871 588
385 563
137 434
363 571
99 736
220 864
518 443
812 668
801 213
341 148
235 625
381 659
114 302
846 583
27 365
51 355
721 495
743 878
518 628
772 231
442 654
540 75
514 554
108 69
18 861
574 318
639 284
679 737
748 388
1 423
202 480
595 267
260 704
231 111
783 820
810 882
334 332
574 27
860 92
63 519
386 400
600 465
305 203
42 782
304 13
824 820
805 671
360 387
234 484
437 1
276 129
702 369
527 366
730 102
640 386
181 814
475 513
795 558
868 40
464 286
74 597
381 695
26 656
862 220
364 29
736 801
285 723
472 454
58 771
155 203
374 509
452 543
568 288
757 820
700 404
321 513
178 394
884 728
171 863
102 309
305 21
857 608
20 520
178 90
790 408
712 728
131 13
171 637
524 63
799 119
127 672
384 194
666 216
46 702
750 594
714 133
651 21
764 634
341 679
399 315
310 866
206 819
671 367
163 604
55 730
370 8
82 660

921 4916
159 221
487 704
110 149
861 872
884 794
916 546
459 322
222 802
408 538
885 776
814 166
498 91
864 905
881 374
868 764
488 797
895 25
887 600
614 391
823 582
866 196
24 415
6 654
316 229
81 357
483 514
617 315
601 17
801 44
909 771
124 221
895 851
769 91
681 233
420 155
111 449
665 410
96 870
482 761
448 68
532 476
732 684
98 479
878 413
327 105
348 677
242 557
611 249
350 367
79 823
353 652
834 658
185 462
11 393
527 96
419 898
195 880
217 71
127 460
771 9
757 176
226 578
44 573
408 214
135 918
588 184
692 420
474 347
699 174
75 517
187 463
23 829
544 71
908 101
698 215
363 628
624 346
571 894
218 714
644 405
457 837
280 436
350 455
225 660
651 912
869 809
139 746
856 72
70 637
896 344
252 829
607 229
437 546
131 395
684 659
30 552
654 774
256 512
67 659
68 693
566 220
126 505
586 786
801 504
530 620
149 686
225 24
704 480
392 738
543 105
857 560
748 698
432 552
587 636
876 742
643 830
163 789
110 59
863 86
891 273
760 258
902 845
119 588
652 138
818 853
601 99
124 889
160 343
641 586
265 131
773 48
839 675
455 312
651 450
228 269
266 428
17 538
676 919
472 344
408 84
591 330
795 508
145 48
134 517
232 900
159 519
185 817
823 113
570 727
147 199
49 443
258 651
813 805
311 583
114 847
563 258
364 682
681 179
726 651
313 727
667 139
544 672
890 219
102 200
15 33
325 876
515 139
37 56
850 187
37 157
189 290
62 48
903 166
246 230
446 339
38 623
460 439
363 70
328 228
457 397
790 345
548 884
683 651
500 802
598 758
693 765
177 916
605 875
254 650
754 796
95 642
648 188
777 837
406 193
203 237
263 610
12 802
396 495
193 220
915 211
238 254
244 425
645 273
882 167
462 269
819 34
30 650
499 808
783 391
35 134
588 861
234 651
122 546
338 919
534 659
763 449
123 59
591 107
17 189
736 691
326 522
169 266
600 497
249 187
616 232
840 702
49 183
362 155
617 359
880 301
802 629
590 886
735 700
811 202
850 72
79 503
30 169
180 606
626 570
398 827
147 384
735 118
882 742
331 372
95 215
292 162
890 903
799 725
249 790
50 865
696 786
270 188
318 630
213 103
21 860
539 184
170 496
138 817
815 480
319 26
341 574
396 708
469 632
391 5
718 846
720 345
186 144
630 417
295 29
840 859
372 251
617 231
780 162
862 866
489 628
769 151
399 596
326 668
555 738
185 403
21 803
286 328
120 846
211 121
99 88
766 816
432 143
434 808
529 91
265 216
917 120
131 133
806 899
745 129
338 560
875 759
174 439
505 824
15 661
71 359
381 640
419 213
368 289
311 67
876 896
295 194
689 748
281 898
284 698
507 854
547 862
510 225
21 661
422 221
118 332
868 600
619 252
814 113
123 422
73 514
548 205
769 339
80 88
735 674
716 888
758 650
10 220
304 428
527 268
729 509
855 734
508 708
36 678
718 620
309 522
520 179
616 63
231 104
669 662
102 244
103 133
641 668
528 428
87 792
437 44
875 637
592 397
60 147
758 62
39 117
688 619
36 836
856 50
360 55
758 52
214 124
253 233
18 46
606 695
790 816
256 711
847 769
231 828
686 239
247 899
799 505
709 182
433 749
729 776
696 672
120 498
591 182
666 430
297 14
202 305
79 450
687 793
543 51
530 910
460 351
452 304
620 45
862 298
596 808
632 609
742 145
797 239
249 246
285 496
386 551
859 346
94 864
700 267
20 235
495 820
443 786
8 384
418 405
249 666
720 121
712 211
197 661
109 232
543 597
26 187
186 742
602 517
257 898
599 94
622 354
31 455
713 180
30 220
753 394
548 629
856 860
130 75
910 267
460 88
387 328
11 724
691 419
33 892
506 746
82 906
473 854
592 594
628 176
793 810
477 209
614 873
795 129
444 81
83 659
173 56
653 803
140 378
180 884
215 695
436 843
383 76
347 72
521 912
847 733
541 64
189 344
119 865
615 92
797 153
304 627
393 371
106 124
685 633
624 497
401 98
398 15
901 837
701 595
315 280
61 329
337 320
890 662
858 610
855 628
197 409
270 321
199 421
219 164
426 361
387 405
367 484
719 883
278 385
206 535
706 452
104 740
428 757
105 77
712 573
758 908
896 575
110 773
120 446
221 798
863 723
605 134
786 649
27 48
282 296
766 817
510 88
747 539
739 891
767 153
508 13
398 84
643 346
112 184
19 596
205 853
638 550
245 794
362 497
582 294
161 77
489 712
513 603
327 728
390 153
440 591
791 628
741 166
406 722
316 385
383 920
415 577
302 821
648 405
458 744
498 332
45 575
135 411
835 170
652 399
766 189
16 92
703 52
734 497
183 533
720 90
424 551
877 425
852 687
616 464
451 837
340 749
144 678
120 854
415 746
479 153
294 395
223 627
719 670
167 129
387 596
796 438
393 185
230 52
253 578
346 74
115 182
26 242
172 117
544 596
700 678
838 896
739 246
34 370
416 825
671 522
606 546
663 553
225 517
907 526
892 64
584 657
140 618
342 97
141 831
54 703
52 911
165 488
61 711
44 385
292 787
118 77
579 749
191 787
888 400
713 118
750 205
769 594
140 192
243 825
167 912
485 817
100 501
746 573
835 772
639 767
566 254
508 114
326 137
308 908
23 313
293 389
295 481
237 698
631 694
49 311
119 296
11 611
49 308
570 82
35 361
716 318
112 404
668 574
477 573
261 125
616 335
462 918
780 437
175 22
456 38
243 14
624 319
914 687
417 382
563 317
316 72
856 305
135 286
565 741
21 42
732 781
72 262
754 851
448 198
541 562
524 779
48 287
13 121
508 791
783 542
753 478
751 746
415 431
39 670
187 241
99 700
153 385
139 792
356 610
211 810
450 14
91 349
736 481
255 172
457 539
603 305
261 102
191 229
488 746
819 686
877 774
566 836
399 317
19 76
94 69
496 500
866 751
904 859
523 89
726 213
720 57
582 580
72 675
732 772
363 100
278 143
168 484
597 360
616 596
249 474
828 221
840 680
482 527
215 162
17 300
309 811
156 503
402 222
573 154
479 769
249 733
293 407
545 886
361 47
570 675
916 350
415 833
259 392
23 355
759 334
544 74
136 278
703 872
699 306
824 245
697 105
590 630
221 294
720 70
81 41
135 268
447 14
123 588
859 397
418 855
192 229
511 45
403 172
255 77
778 701
98 202
176 466
336 280
571 577
473 606
521 783
115 176
109 885
775 333
85 387
31 859
491 507
327 145
29 738
387 667
85 407
804 829
546 317
431 813
416 15
159 841
550 572
514 602
130 382
868 688
388 109
29 770
468 723
505 591
234 119
417 96
474 518
163 580
607 255
717 800
297 352
82 652
356 115
49 711
690 884
584 470
37 847
325 146
625 65
753 20
109 763
257 914
367 212
207 66
756 764
512 238
778 567
29 761
781 203
788 911
235 870
664 776
723 240
444 233
482 213
694 409
802 737
158 22
178 263
732 866
289 264
221 227
258 367
668 839
754 474
816 397
248 63
726 254
657 104
783 109
254 526
704 829
258 213
536 476
613 205
479 442
816 274
281 538
763 426
191 909
341 453
325 155
552 294
46 182
809 198
404 223
168 559
25 375
425 717
262 201
401 880
211 659
140 475
879 602
290 715
480 128
119 594
549 365
25 480
300 248
761 46
465 108
891 776
837 129
322 517
37 62
882 896
864 667
300 786
523 69
616 545
85 700
491 165
782 263
585 73
452 635
752 562
363 64
706 831
207 664
720 702
868 821
527 520
616 251
890 262
907 172
732 103
527 113
430 523
161 696
74 715
308 886
609 631
350 148
812 711
795 364
724 62
462 589
817 191
712 542
451 137
531 812
617 181
627 224
865 573
448 658
722 906
581 228
199 728
431 495
602 769
29 513
272 318
309 412
764 559
701 715
621 738
797 798
753 587
826 542
309 257
585 114
342 348
878 439
309 252
884 621
516 484
614 199
335 59
543 260
531 708
805 580
897 516
680 489
112 795
21 63
243 67
885 432
479 313
265 625
735 45
11 690
30 167
175 399
331 107
750 427
698 854
257 790
458 228
866 233
21 603
667 504
316 311
635 889
465 94
468 640
639 492
583 403
198 226
7 633
147 502
772 57
807 572
739 775
841 610
690 636
319 28
767 476
144 383
914 322
788 117
222 290
356 398
337 821
102 409
164 572
100 174
896 361
715 239
733 196
589 797
168 207
29 893
200 836
411 14
72 740
565 417
896 280
680 725
308 702
917 707
129 594
739 114
316 596
903 496
763 438
332 378
601 117
654 233
780 744
359 232
514 629
328 132
204 117
457 864
552 123
723 125
501 918
421 751
820 542
235 439
364 307
56 504
310 391
628 390
296 423
702 478
789 559
851 104
46 200
873 140
319 545
565 313
238 366
789 219
368 9
42 269
522 51
134 894
618 728
910 833
119 123
910 239
491 792
457 152
554 758
371 382
101 553
852 503
46 426
763 660
231 271
730 33
760 574
469 801
779 213
737 654
24 91
168 468
295 132
26 680
501 458
890 100
601 820
85 139
197 855
588 675
292 480
385 117
902 7
878 69
483 886
856 270
871 332
858 662
68 657
159 175
126 285
74 184
754 381
858 574
666 420
150 125
25 143
603 164
471 441
565 525
267 653
209 786
454 521
145 659
882 76
465 360
261 758
814 71
135 455
599 866
375 9
452 908
199 812
821 550
592 398
169 792
901 87
704 317
688 620
891 87
622 374
312 576
293 94
16 330
569 292
453 817
844 103
455 589
312 195
352 135
433 369
617 669
429 381
451 646
159 640
677 822
587 463
201 83
430 279
271 911
406 662
795 794
850 598
262 167
121 132
765 254
378 96
30 809
144 445
36 686
214 786
538 229
614 887
82 233
741 531
599 513
821 301
713 492
72 484
902 884
607 166
917 250
918 248
85 147
5 427
117 438
541 233
360 334
719 855
908 889
99 106
784 823
621 443
622 443
107 727
787 153
589 146
719 393
204 829
204 714
479 830
389 450
300 86
266 649
709 190
86 884
486 361
314 753
897 13
199 577
129 90
313 216
702 322
116 353
479 847
402 852
838 727
32 682
8 274
842 608
900 446
131 846
522 354
9 397
116 42
605 212
195 45
40 618
130 289
222 374
604 828
791 156
722 349
355 83
375 396
309 266
140 791
913 379
716 643
119 15
168 441
520 291
31 205
831 519
486 292
152 94
249 531
360 181
22 511
876 664
787 344
436 423
112 352
700 97
131 339
849 300
80 52
903 444
115 486
673 65
915 355
50 759
363 679
179 562
413 163
38 680
348 496
706 503
194 519
177 824
263 377
504 121
257 474
586 270
324 377
414 688
329 740
718 22
479 440
499 755
20 688
120 660
373 409
194 797
598 866
766 448
834 458
696 124
396 813
491 546
681 419
167 551
25 107
461 421
578 96
858 46
304 631
357 320
691 183
451 176
767 419
126 313
400 472
691 672
367 492
612 458
677 263
615 762
283 53
27 793
786 523
218 546
31 630
145 52
171 488
863 731
555 26
565 31
765 740
462 323
778 832
709 770
160 226
108 803
318 826
784 840
292 841
350 736
392 14
840 181
209 160
319 47
323 853
142 748
490 206
720 308
630 412
498 190
405 594
780 642
459 70
143 194
1 439
554 589
884 724
79 106
832 620
389 78
874 853
799 237
1 893
456 411
717 287
402 404
920 255
617 538
794 70
905 507
742 711
874 740
466 633
811 648
195 244
126 585
307 305
492 326
439 227
21 772
351 13
464 687
82 424
398 143
746 320
912 344
144 557
253 304
241 709
845 12
811 132
354 146
390 619
190 788
247 278
448 792
272 183
734 796
401 472
615 485
256 485
665 316
295 369
256 54
188 647
688 472
173 138
800 151
31 673
692 877
362 670
457 738
520 54
920 64
26 886
300 710
392 575
502 883
731 331
417 92
532 837
763 84
611 196
828 838
406 629
135 532
601 688
616 752
764 497
99 76
583 731
808 128
534 495
281 251
741 697
171 90
823 373
615 208
304 359
157 3
413 441
363 754
126 338
398 279
38 782
864 513
258 16
291 705
479 359
742 221
177 837
163 707
265 565
692 884
806 259
845 359
95 856
93 128
611 169
244 40
814 451
464 270
703 734
468 89
464 586
254 65
491 161
37 549
795 53
28 483
565 798
31 27
785 216
199 496
92 686
901 689
112 761
35 805
886 682
758 159
589 788
281 380
523 717
183 292
321 536
731 89
120 215
680 524
291 224
823 587
900 647
560 695
24 811
100 535
726 370
432 847
639 25
91 450
680 208
599 618
60 231
752 151
469 124
570 28
400 695
719 459
439 206
811 289
23 64
464 660
690 255
908 778
431 517
59 402
315 887
386 195
803 870
514 103
448 182
741 102
46 711
11 483
638 758
680 755
435 537
201 446
37 768
369 87
95 136
685 916
82 90
814 712
67 453
893 550
119 436
35 601
566 589
37 11
17 238
621 650
591 853
5 82
354 340
887 162
815 449
51 441
871 574
85 191
322 675
72 722
895 377
92 122
819 516
312 832
37 172
295 66
521 369
25 618
319 519
486 797
813 576
272 35
604 800
90 357
106 172
41 874
632 14
354 182
264 893
666 233
546 793
600 556
855 332
584 294
451 154
380 812
34 560
515 371
829 540
705 89
519 395
112 717
356 751
178 260
144 823
687 423
251 853
274 678
451 462
277 176
868 696
629 659
36 892
744 664
295 682
19 646
490 104
169 277
603 227
816 675
907 381
871 644
216 227
16 384
72 253
18 412
219 894
144 46
121 62
683 402
286 470
333 277
388 395
484 330
716 284
840 557
217 255
682 838
772 17
629 125
663 578
699 99
902 835
599 331
338 710
55 670
548 274
432 697
234 893
914 318
914 651
555 542
592 103
266 628
349 294
647 78
706 222
247 604
692 386
646 555
15 288
508 54
380 571
664 633
534 580
60 911
848 725
152 450
850 745
420 48
745 686
780 764
527 559
762 90
35 421
110 81
681 507
564 803
331 574
261 49
155 409
304 893
527 298
53 65
513 133
345 320
643 809
1 486
570 697
292 632
37 98
232 591
745 172
156 869
563 712
361 320
583 405
416 21
452 358
607 531
367 576
336 898
557 656
796 738
601 800
339 377
180 819
414 830
108 253
250 675
301 176
606 561
868 829
448 241
849 123
581 458
598 504
690 889
433 711
675 64
544 760
566 529
161 792
702 405
476 232
403 751
705 584
135 610
844 602
360 294
465 431
569 489
860 568
2 487
98 92
907 359
590 324
65 397
763 665
588 122
38 478
786 794
473 45
736 267
350 869
315 575
320 125
433 306
415 811
567 190
198 114
364 270
899 45
313 82
189 170
85 899
781 614
878 307
752 551
509 622
507 573
752 104
388 352
643 843
710 104
22 730
465 485
100 497
534 218
130 683
681 32
441 172
168 660
84 651
743 240
302 672
394 535
450 600
125 559
642 123
608 130
55 210
554 834
380 331
407 593
156 61
671 307
106 589
841 438
125 853
397 208
219 813
291 488
632 721
3 105
518 759
207 658
703 313
301 372
301 831
29 474
288 220
625 424
641 149
298 912
836 526
627 559
341 739
703 852
222 87
494 333
789 518
114 424
99 324
561 164
300 392
67 600
850 391
819 860
345 529
824 167
515 224
510 7
32 244
350 855
741 467
65 264
308 380
726 711
337 144
822 188
458 867
664 10
87 267
615 757
890 283
375 703
855 619
452 751
204 368
418 587
734 221
661 798
603 264
187 394
902 322
795 331
338 681
456 765
601 213
838 785
710 90
877 821
698 436
914 599
112 459
126 210
205 610
81 231
542 675
282 864
83 58
211 497
108 824
709 733
128 48
94 276
37 533
773 27
352 41
8 411
10 854
669 517
597 687
871 585
784 817
180 791
617 484
736 143
458 874
93 798
809 503
497 192
564 680
206 664
338 785
869 397
563 504
283 743
62 284
305 867
654 847
396 62
713 708
27 815
570 916
419 881
665 54
18 594
891 16
524 770
392 195
799 829
189 216
547 483
493 131
813 746
418 693
834 684
459 122
842 880
670 323
668 463
486 576
85 410
604 390
342 202
907 791
882 266
809 122
681 845
680 424
444 203
601 773
671 302
729 463
794 275
654 113
435 440
348 378
661 260
645 90
496 698
856 758
777 300
597 305
411 124
288 225
698 602
329 896
237 322
612 453
868 530
741 748
261 7
488 649
414 45
251 490
883 854
719 471
271 743
364 75
256 68
592 494
168 315
304 866
209 434
175 536
567 332
34 754
295 760
93 308
398 442
165 292
656 610
484 892
301 146
248 502
90 269
753 654
826 332
259 837
849 101
707 524
65 89
283 142
543 745
359 667
450 661
487 109
54 560
346 546
862 395
417 250
584 91
186 606
354 121
178 156
871 217
601 40
586 418
729 470
178 372
519 58
778 269
140 371
147 571
783 60
306 400
35 82
146 518
93 269
277 241
152 576
445 368
121 503
728 649
414 439
658 438
473 132
588 704
755 167
168 11
20 136
522 76
180 382
541 363
49 885
232 104
196 118
108 400
880 377
219 191
328 603
607 437
186 44
258 625
703 577
461 481
7 78
409 715
85 794
2 761
909 344
150 180
451 64
73 598
883 526
525 5
225 627
155 836
506 240
464 879
449 551
547 366
710 268
612 695
144 877
162 132
218 658
883 447
131 121
679 474
445 222
473 118
387 402
608 322
328 62
437 447
348 161
866 546
387 272
850 680
356 544
799 896
525 693
523 603
828 229
329 462
38 797
510 814
768 429
695 412
207 501
778 428
706 897
617 777
302 283
32 326
482 733
198 727
890 210
109 424
716 400
170 711
666 582
596 846
355 675
462 331
562 192
416 537
164 722
729 278
563 523
830 107
152 590
285 727
193 207
701 898
504 503
393 405
128 744
806 559
510 269
147 853
439 420
672 385
683 714
688 107
254 453
257 760
871 812
856 134
910 761
729 883
876 313
178 16
345 505
92 181
418 160
458 213
296 861
650 154
279 396
564 324
506 268
766 173
116 182
569 42
398 444
328 771
18 421
536 658
351 484
868 210
210 910
779 188
49 20
215 263
358 675
765 87
185 186
257 540
537 271
666 752
116 296
885 658
617 729
224 860
100 652
768 757
549 5
272 63
914 386
233 889
882 184
901 205
387 639
668 200
836 428
410 101
799 461
512 63
324 771
308 490
598 402
473 776
845 842
165 669
92 774
813 289
741 196
616 440
279 816
375 658
891 878
819 253
485 518
94 7
325 908
470 442
453 749
826 9
257 274
539 813
916 444
207 360
556 675
272 382
635 377
565 748
488 48
396 233
753 722
348 31
209 63
95 162
850 770
725 289
374 378
728 613
617 64
712 522
531 88
608 582
218 910
111 231
361 349
578 815
315 319
565 419
232 826
46 701
907 877
747 684
604 127
126 346
838 573
17 787
20 657
521 296
206 466
124 90
100 219
465 127
748 514
249 877
544 336
160 325
56 556
660 633
37 604
665 279
477 858
115 459
667 438
832 828
834 615
541 401
337 520
770 894
308 721
30 565
278 148
507 751
398 57
861 447
556 613
541 514
726 805
44 874
711 267
567 518
398 375
881 657
80 112
775 335
247 508
891 562
158 898
341 418
783 319
753 351
492 389
608 422
664 771
663 591
99 317
561 141
262 689
2 826
854 447
341 216
285 699
2 435
112 522
2 553
39 169
353 365
596 287
27 595
798 662
160 593
747 759
197 160
805 576
602 400
275 384
21 177
646 913
24 128
903 744
612 127
515 803
530 701
319 75
560 568
158 207
640 90
343 298
706 236
328 65
823 555
113 517
384 792
43 125
500 138
526 634
835 572
413 749
496 205
451 157
768 841
695 166
616 533
350 616
365 469
735 746
701 155
479 715
225 568
583 301
778 331
135 495
191 274
601 31
50 303
160 339
822 762
3 226
515 158
452 433
178 546
457 669
611 146
95 269
597 553
852 723
564 434
564 403
732 678
566 405
406 696
201 826
255 75
20 663
256 736
277 629
290 453
668 752
64 723
449 859
780 185
85 93
838 629
215 372
589 519
845 537
718 736
41 415
901 342
140 881
736 860
689 113
360 313
288 81
298 853
689 357
220 349
392 811
775 903
82 346
302 652
655 733
170 441
309 17
200 678
185 744
790 490
692 403
328 796
631 281
266 418
444 900
631 828
821 374
750 324
741 280
329 246
907 792
115 235
5 838
407 631
603 339
674 88
375 834
16 76
181 764
808 559
788 208
337 274
112 264
406 664
613 528
337 135
262 779
525 57
81 535
395 860
778 581
783 705
399 828
775 92
112 27
862 330
241 182
848 855
77 776
552 230
63 830
762 358
860 423
565 600
893 422
416 22
71 373
486 488
849 554
523 58
775 141
687 260
724 798
816 535
193 495
603 394
434 540
660 179
515 285
111 147
22 641
328 427
718 474
157 71
458 65
824 444
291 736
56 806
491 738
516 292
592 381
896 155
187 358
406 878
781 818
194 204
654 117
178 351
680 720
826 76
86 148
781 472
101 240
706 526
844 807
68 580
348 533
214 571
493 761
791 917
316 123
45 595
247 230
214 895
530 276
56 450
630 239
328 238
93 327
293 458
646 552
168 526
97 311
219 909
615 710
686 658
391 71
818 497
285 11
178 455
470 580
550 162
402 339
13 841
381 344
521 485
704 3
480 296
897 859
156 280
875 487
285 188
28 613
251 839
437 182
508 377
718 894
122 860
522 332
23 834
707 757
211 537
246 637
901 745
177 876
604 192
605 450
683 461
520 207
522 223
214 886
343 811
567 381
642 235
364 262
458 889
256 716
847 166
621 248
482 428
709 827
467 119
282 34
643 910
617 654
718 764
788 829
225 492
170 874
745 674
407 651
504 571
764 252
486 469
531 837
186 533
844 132
372 47
580 628
725 50
304 263
840 772
158 123
506 805
200 269
60 44
699 398
457 879
3 874
885 674
63 751
120 47
169 329
265 266
378 133
359 421
658 339
142 437
237 883
555 847
574 562
650 553
902 590
652 322
177 489
379 238
713 706
773 437
588 556
437 450
186 684
454 120
25 704
641 820
375 154
477 150
106 855
108 60
570 499
789 526
367 59
315 33
388 169
890 916
525 430
158 98
70 575
70 896
109 91
480 426
256 230
448 384
469 361
705 892
79 765
299 655
10 103
138 246
129 657
486 848
234 66
752 70
163 194
182 162
607 200
404 277
891 593
545 836
432 33
875 727
897 307
806 45
786 88
664 385
477 761
170 860
407 210
393 145
448 481
13 684
199 374
140 577
895 903
818 129
735 403
920 76
404 62
758 389
523 471
890 5
302 698
763 676
641 807
819 23
622 692
570 109
1 331
885 876
539 605
214 67
334 572
336 427
889 894
502 141
817 839
583 876
289 560
487 888
130 618
345 851
39 773
408 557
741 800
638 596
488 389
732 518
786 33
36 576
224 129
343 125
258 636
498 226
595 752
890 736
173 164
708 484
602 220
585 828
605 161
791 833
520 593
595 810
372 497
781 672
570 579
214 236
292 332
321 215
529 600
338 881
615 89
337 578
563 15
359 517
485 730
303 355
842 439
917 455
222 263
539 54
668 568
578 103
173 833
906 229
564 908
585 852
448 758
562 242
327 184
609 497
8 798
509 842
778 443
851 867
458 128
748 765
693 593
39 78
881 913
183 537
387 340
295 654
379 329
641 5
848 50
673 909
681 603
379 428
736 47
370 550
367 264
904 252
189 366
337 301
2 878
597 147
342 218
783 85
913 370
4 644
169 719
97 365
298 340
814 824
563 462
585 861
126 874
783 648
354 449
550 653
254 734
754 415
592 334
645 663
902 709
512 42
579 600
309 606
670 673
736 164
305 425
345 191
679 102
420 305
186 412
331 358
460 216
814 97
887 885
799 696
157 237
768 585
201 787
382 103
57 425
369 146
757 409
856 688
27 372
339 582
401 613
268 634
40 727
821 866
790 723
898 672
42 334
802 466
60 113
777 452
697 397
525 233
429 148
665 33
822 478
732 181
365 63
719 279
901 400
903 428
399 400
120 891
341 648
599 487
325 870
126 177
851 825
729 269
834 911
832 355
814 104
634 793
856 564
51 854
505 125
512 283
566 66
508 593
74 593
772 274
313 24
645 487
760 186
869 51
652 389
598 457
870 818
12 369
455 818
624 84
753 474
92 730
535 472
920 298
386 410
794 271
888 94
448 341
85 501
23 483
489 501
811 517
36 49
186 275
534 910
369 810
79 424
119 623
668 672
902 518
124 858
158 498
859 860
35 522
751 785
19 72
126 2
701 658
25 433
99 406
482 370
92 254
710 898
748 633
297 684
490 793
236 582
625 277
457 830
577 426
500 473
799 575
801 383
693 334
783 187
163 236
751 610
459 23
222 483
421 657
259 202
558 601
652 710
687 138
139 797
469 255
285 204
841 222
56 695
92 141
718 564
679 790
900 577
189 91
389 190
391 820
528 400
285 306
857 612
126 750
87 892
473 453
254 905
183 545
883 484
475 531
352 551
829 43
170 47
523 90
282 862
711 817
639 340
403 223
500 87
549 503
399 752
127 735
184 255
76 488
39 244
259 751
777 110
625 156
147 779
321 621
468 831
145 647
416 301
548 590
734 694
809 797
283 899
902 205
299 408
711 162
452 253
891 382
590 368
758 347
775 27
558 345
467 877
525 560
267 727
588 830
916 712
534 779
42 93
614 826
615 860
427 627
463 794
289 397
908 450
37 919
84 764
161 313
328 204
607 243
60 86
28 567
142 50
264 833
156 557
498 449
782 789
824 876
92 460
739 572
53 492
861 303
11 610
439 434
470 519
25 362
685 1
836 132
209 74
691 358
506 695
503 779
587 661
218 227
1 401
201 444
918 208
871 117
316 225
613 757
635 389
266 96
654 9
285 847
547 516
842 765
144 391
328 356
685 774
257 184
536 384
684 513
646 328
558 30
144 644
491 858
231 786
569 762
54 370
311 303
721 524
142 452
4 469
408 171
34 208
798 550
857 234
53 58
414 458
754 751
95 659
846 889
225 27
861 572
499 860
381 519
537 3
313 278
469 908
498 810
98 807
337 37
542 818
451 899
361 340
307 816
549 273
654 382
2 545
163 204
903 851
374 154
55 562
173 466
459 397
588 246
699 477
352 886
849 19
334 48
615 730
683 303
296 602
844 784
61 892
56 740
143 811
347 362
325 479
719 328
719 903
12 682
564 836
545 798
359 674
713 378
533 532
491 817
365 461
95 809
835 808
23 822
64 269
29 864
156 872
257 282
667 241
842 673
147 493
293 706
130 184
348 492
777 614
207 355
744 495
121 880
362 88
547 769
417 119
272 329
398 580
760 228
244 445
821 303
283 831
691 89
473 264
788 676
897 446
115 597
278 468
743 658
283 78
122 218
565 566
430 196
416 877
53 906
240 412
465 678
700 34
761 385
315 894
262 667
432 472
105 921
731 310
141 843
257 374
921 164
536 228
478 707
307 192
319 16
602 9
106 18
287 428
760 682
363 58
492 708
571 164
65 577
754 649
403 205
149 6
398 166
578 892
515 8
549 671
141 610
914 473
806 6
920 117
767 745
6 735
782 480
480 839
906 436
598 164
691 121
530 60
401 221
915 544
430 15
717 340
130 686
302 857
333 75
100 509
482 550
467 732
141 836
878 466
185 761
347 518
750 654
880 450
62 63
797 333
391 764
692 402
912 275
696 394
901 517
20 685
353 658
819 884
665 862
406 568
446 866
177 897
841 284
381 788
18 80
193 83
467 683
277 837
43 88
642 704
760 195
597 711
599 760
512 887
692 176
894 428
364 660
60 667
156 137
460 588
707 756
392 191
690 519
583 755
130 103
360 712
899 182
272 303
366 244
604 62
710 701
209 79
338 471
465 229
448 187
642 142
210 816
68 774
626 849
878 324
554 390
648 650
774 501
799 66
325 545
694 865
608 520
474 659
815 880
120 897
183 313
433 498
5 132
558 287
916 755
359 827
216 571
189 253
87 264
100 750
58 648
449 808
149 234
56 531
388 163
439 635
407 76
597 689
697 104
267 851
565 472
360 418
589 705
19 572
316 287
210 220
613 267
864 788
101 114
561 711
251 240
766 771
808 656
509 66
473 609
213 129
187 872
684 183
6 463
228 574
245 632
122 722
212 269
12 303
338 233
148 674
26 540
388 718
159 92
501 702
392 222
230 921
29 23
30 159
341 740
434 146
234 823
418 696
110 425
685 462
441 188
460 578
687 909
300 385
283 475
800 358
677 167
201 886
271 255
225 769
772 141
523 155
887 730
476 330
410 391
319 707
893 836
256 650
244 230
163 536
111 182
167 399
353 12
615 748
601 760
491 213
564 33
231 690
913 287
877 230
532 10
53 548
662 807
41 484
387 240
117 657
670 248
545 820
747 400
902 600
348 587
537 703
21 636
709 409
505 96
289 582
108 766
218 330
113 717
519 829
791 359
444 325
30 416
624 41
643 554
225 647
729 633
61 897
116 615
823 134
485 801
281 400
161 271
435 116
825 424
608 503
883 661
277 276
425 507
557 450
892 843
232 865
375 107
506 829
713 175
494 894
694 129
257 645
882 125
121 219
459 731
426 833
741 379
108 455
768 604
429 74
656 743
786 682
876 501
109 658
272 720
899 556
554 804
589 59
386 287
686 146
579 651
67 734
305 770
765 513
345 800
444 836
89 846
914 873
883 749
826 647
702 50
741 93
464 7
448 858
157 902
690 704
561 859
811 267
289 236
291 653
398 883
756 65
314 220
423 274
830 854
558 315
635 490
780 388
341 816
285 707
768 777
200 829
823 358
678 154
780 566
896 275
509 468
494 278
705 725
63 701
707 355
509 479
672 628
140 365
214 492
694 497
913 43
767 720
554 466
380 618
276 837
868 444
99 572
874 633
712 422
227 268
69 727
893 154
366 872
258 813
474 52
237 854
185 75
811 708
711 275
109 426
744 779
33 708
450 746
237 668
790 584
419 870
222 852
560 280
919 77
836 154
449 511
31 700
433 613
356 444
255 466
136 255
18 324
100 717
639 677
21 154
415 855
363 558
719 371
479 200
123 361
130 270
76 591
519 66
651 263
559 662
873 379
314 128
814 101
379 277
78 792
207 592
307 346
660 600
594 634
36 335
612 491
318 607
689 900
691 269
599 428
51 567
15 400
106 525
276 439
408 434
7 65
478 87
410 701
565 631
87 290
767 625
399 892
592 571
863 717
889 373
814 546
286 781
719 621
713 122
615 228
680 824
842 747
384 911
21 342
39 584
597 354
673 708
835 437
871 612
608 121
893 172
35 841
381 504
182 134
772 418
611 410
777 295
852 77
283 769
30 303
86 344
861 96
570 311
770 200
687 213
789 23
789 706
4 654
741 270
170 824
688 475
190 746
375 512
393 177
786 154
265 152
145 853
186 431
573 785
620 506
543 210
179 273
890 197
585 542
843 349
148 426
60 65
667 43
597 402
462 707
800 542
229 220
49 155
68 129
512 386
85 4
308 237
459 473
457 123
185 94
295 847
404 131
831 107
47 298
185 281
68 749
549 857
307 98
474 798
642 835
291 307
312 87
224 894
812 151
170 726
318 728
501 216
564 784
302 299
408 793
842 694
173 381
363 203
806 893
381 723
75 264
827 306
811 133
224 749
479 623
462 230
727 213
178 531
197 320
587 248
597 586
902 545
3 494
493 189
872 344
871 256
194 892
525 792
858 730
819 592
454 682
194 233
370 166
284 854
495 228
741 788
745 292
704 62
248 637
160 488
496 232
881 233
915 360
773 191
187 436
904 418
595 870
25 703
100 197
465 125
174 178
31 239
323 446
622 763
882 454
457 657
350 901
520 636
766 650
342 305
286 870
158 187
824 563
420 595
630 532
477 542
421 305
42 237
812 428
595 580
882 721
299 726
525 326
592 313
285 44
915 139
587 315
161 672
382 862
627 64
713 277
481 769
813 640
282 120
84 279
861 414
495 132
861 553
273 64
920 67
477 800
663 585
830 792
705 377
547 445
801 618
840 70
342 129
500 656
473 470
753 881
700 787
111 17
719 155
499 905
399 786
724 771
448 89
375 459
322 551
214 282
168 67
415 218
273 354
662 644
312 835
848 320
920 77
578 633
523 216
652 426
319 117
393 390
368 90
133 837
271 707
573 213
290 349
93 861
242 697
321 229
831 900
316 778
760 763
337 139
375 631
44 854
178 871
50 560
12 36
234 774
93 3
574 836
277 332
498 811
845 335
393 794
599 243
31 646
30 879
108 123
238 292
865 91
684 70
371 837
429 87
869 61
287 441
750 323
401 656
56 480
664 629
130 484
738 113
39 297
895 645
261 745
596 151
511 117
283 219
304 68
434 357
122 708
42 743
92 227
738 224
24 200
352 623
30 909
134 662
853 657
245 668
553 629
195 900
108 534
70 229
612 918
805 798
715 807
881 706
386 188
25 863
99 224
228 576
824 142
401 323
863 856
790 29
465 872
775 150
745 915
482 859
27 162
856 543
892 229
406 595
351 535
179 668
878 432
473 516
681 111
266 101
467 884
615 153
46 187
247 131
67 210
553 267
315 833
642 322
92 250
158 231
30 358
663 56
365 472
578 167
320 662
266 638
119 523
360 588
677 305
719 233
293 422
249 267
376 911
49 524
393 223
2 825
63 200
414 146
659 212
53 301
327 450
193 858
539 634
848 560
867 236
542 725
745 34
835 842
892 252
413 74
108 248
60 432
609 104
21 202
222 709
300 832
101 833
781 53
433 143
859 87
763 479
358 708
21 758
171 799
750 593
139 822
907 765
268 223
398 659
381 237
755 621
574 889
590 774
353 286
225 577
542 320
300 405
150 121
749 344
288 852
99 667
599 336
178 157
350 445
371 229
522 879
724 807
318 138
881 644
819 301
549 566
252 839
199 125
95 103
844 515
612 768
740 423
300 545
10 324
51 711
692 639
362 358
469 706
881 9
308 725
536 121
257 421
459 282
96 560
478 400
66 792
564 399
106 662
123 284
215 242
777 833
364 661
308 698
534 217
889 287
38 487
198 61
150 214
82 248
101 231
598 303
565 544
214 462
747 896
288 422
414 593
130 345
592 734
95 355
64 220
82 724
191 385
29 294
431 502
234 94
714 139
910 188
879 57
555 840
858 547
363 85
920 613
540 854
834 714
407 788
891 391
716 569
56 296
107 629
532 5
145 848
549 179
530 336
578 794
832 566
597 148
762 270
66 403
321 921
31 356
70 892
514 277
805 818
203 707
610 330
60 757
403 623
596 476
137 798
247 65
157 270
582 172
784 115
41 567
71 354
805 899
238 459
292 743
849 531
407 497
561 810
617 405
580 340
621 634
767 314
41 361
555 852
214 389
379 874
719 553
903 572
689 624
483 305
908 649
311 63
108 752
266 542
185 176
455 410
699 533
494 708
558 882
279 770
432 187
318 797
492 449
95 1
21 626
614 880
124 229
102 818
863 752
567 476
218 320
844 729
845 293
354 727
832 870
158 830
549 124
140 376
876 695
467 300
352 155
353 3
741 42
114 335
84 578
470 623
17 481
660 395
547 64
442 331
479 759
579 710
745 734
28 231
218 572
585 332
782 340
363 329
863 600
211 86
421 400
529 773
775 652
651 386
671 57
872 181
581 205
174 237
158 662
32 849
768 614
219 900
718 821
32 842
314 583
59 63
689 164
706 858
49 690
286 14
12 660
4 86
700 503
574 546
645 530
739 331
887 579
636 367
46 847
140 747
341 737
128 702
288 227
598 153
735 192
555 147
131 366
773 803
902 307
521 106
118 695
140 45
813 634
841 136
624 588
670 233
471 695
55 130
40 788
261 474
155 702
299 821
85 305
335 769
362 124
911 730
532 368
330 69
370 918
100 815
777 79
209 170
782 599
121 499
784 247
270 648
606 81
883 748
347 747
645 64
629 843
316 391
616 645
474 14
411 445
832 243
159 733
588 449
572 176
97 16
741 274
353 561
544 615
302 859
123 138
412 340
195 860
786 817
624 547
739 590
608 201
35 819
204 534
777 231
465 786
465 168
311 333
276 623
748 219
151 9
714 839
96 221
272 259
919 898
297 285
99 498
592 96
597 33
361 594
345 471
877 63
109 213
645 73
258 733
496 880
824 208
544 527
648 633
873 853
595 756
12 793
363 342
32 434
112 411
790 242
521 305
282 832
564 473
463 462
266 566
360 644
770 573
554 331
147 550
226 648
812 647
27 473
7 216
565 73
875 89
878 384
592 724
835 220
168 443
884 176
776 357
522 828
209 164
614 89
302 907
383 794
376 627
857 139
358 519
126 768
626 815
571 239
258 107
167 434
522 114
601 879
372 298
464 571
588 244
394 439
621 744
485 859
642 261
391 511
862 376
203 486
882 332
459 880
386 215
353 920
79 429
119 223
414 104
250 87
819 679
358 865
773 395
548 817
189 428
145 628
20 490
632 439
408 290
918 748
844 506
602 779
448 547
710 378
877 597
161 276
509 653
513 874
328 878
464 562
590 74
166 7
846 240
835 97
102 31
11 355
288 582
509 119
534 128
19 726
243 458
561 14
889 905
391 450
564 13
431 731
214 217
605 274
135 474
623 546
504 629
28 304
558 333
848 335
100 621
102 889
488 744
585 273
108 587
663 523
532 165
144 213
864 259
790 458
719 143
24 63
200 50
172 322
669 28
482 153
508 23
551 909
626 411
177 488
848 161
593 821
80 315
425 843
62 560
494 756
377 655
375 364
413 4
472 576
666 909
554 95
511 139
701 284
171 651
425 724
908 242
636 394
107 573
825 634
706 765
754 390
19 844
591 722
529 825
169 644
668 122
580 575
265 102
673 97
158 621
503 633
12 917
149 391
111 2
375 627
370 751
614 834
850 293
814 494
190 40
16 666
381 921
638 47
331 114
741 179
92 414
8 538
521 225
249 477
429 311
654 656
414 405
604 816
189 548
364 327
624 196
185 102
665 121
406 162
370 308
211 118
448 421
78 125
616 346
16 46
234 765
36 660
842 547
921 746
691 657
500 54
639 5
714 787
289 369
73 60
660 864
607 108
809 61
646 770
903 863
181 273
249 739
285 442
584 538
21 213
733 572
534 695
167 623
459 62
614 651
762 118
526 711
283 307
753 22
263 805
679 362
791 91
189 591
208 653
27 822
185 65
29 38
543 779
178 877
140 692
767 72
73 84
570 890
73 802
556 236
798 497
366 792
512 330
554 278
771 804
467 755
869 196
465 307
311 918
84 246
780 635
158 750
341 86
751 816
406 731
750 242
202 89
614 215
754 428
652 427
873 146
212 146
654 866
159 192
353 48
464 858
718 337
140 629
94 270
904 23
278 694
120 700
190 820
467 858
907 713
602 227
433 244
400 576
682 859
21 400
596 434
522 573
317 602
637 581
67 462
231 489
583 84
638 588
72 771
885 391
690 776
217 438
116 468
351 912
709 526
376 561
11 553
487 208
14 853
127 185
455 43
293 476
666 870
295 552
920 827
326 440
615 724
211 242
799 541
693 160
679 31
271 437
720 701
82 229
759 675
408 35
337 131
28 142
374 765
148 146
247 310
379 191
515 462
5 581
19 872
165 270
3 738
904 344
902 648
174 404
588 202
360 331
551 129
430 743
329 362
699 280
360 200
645 885
904 295
633 239
871 157
710 336
640 188
529 260
568 894
734 90
479 504
295 545
760 255
78 825
687 661
27 876
600 723
521 855
500 553
608 690
413 647
805 378
753 57
769 828
130 546
888 800
903 616
689 682
591 807
726 291
605 580
266 374
452 305
914 162
38 258
421 498
296 810
888 911
352 66
135 478
233 369
469 785
53 743
754 107
183 7
612 704
575 107
100 316
652 449
669 573
619 453
631 192
451 343
52 545
753 161
132 503
44 222
407 346
504 705
114 394
30 466
638 647
306 148
272 78
295 879
145 274
756 332
494 255
665 644
758 631
333 259
597 129
855 343
656 828
622 251
808 851
106 809
895 339
719 772
280 694
779 793
119 600
876 688
158 699
527 795
506 245
469 495
732 433
711 810
752 618
193 206
850 836
617 426
353 458
88 205
668 602
364 266
683 364
496 658
918 757
197 41
136 579
18 222
34 160
471 246
565 731
588 569
773 371
4 13
832 560
247 786
29 728
235 543
527 243
693 44
253 911
350 504
290 721
79 903
480 90
479 552
192 559
579 205
249 792
306 269
56 506
238 449
111 61
495 807
116 192
406 582
225 714
279 123
155 137
302 535
249 649
432 423
396 706
640 827
842 414
232 919
754 241
292 200
85 505
115 290
874 434
547 191
124 47
677 346
523 653
272 916
554 23
19 791
861 141
830 184
158 269
101 707
636 434
504 243
250 475
565 437
604 43
859 213
473 402
473 837
510 9
391 497
314 117
4 155
364 550
177 883
690 572
286 510
416 62
825 803
734 423
220 792
555 640
5 420
850 822
669 402
799 283
249 658
558 599
380 636
896 50
461 213
847 774
3 553
31 220
498 553
299 85
209 666
696 589
174 9
838 591
544 313
456 857
211 82
520 386
261 907
833 538
297 917
407 214
561 523
525 741
285 320
316 566
616 721
434 733
127 365
517 661
554 480
224 137
187 511
649 440
260 788
890 915
651 83
180 854
581 798
693 500
538 422
73 500
890 72
165 326
920 16
97 494
480 519
477 536
823 252
193 456
356 876
233 254
401 367
27 751
622 547
203 610
847 378
636 892
46 223
84 579
729 786
362 813
327 199
348 771
665 58
862 346
338 668
779 14
140 55
126 152
418 306
250 276
238 156
327 804
645 383
298 708
170 657
451 852
674 852
841 476
344 164
471 483
607 173
629 357
900 323
222 542
152 385
449 678
427 690
338 446
606 105
553 686
401 169
607 649
713 821
367 803
648 267
406 730
406 15
753 264
337 788
907 855
506 62
913 278
584 255
477 186
120 160
482 39
529 674
246 746
766 815
98 320
70 838
680 69
440 880
202 371
882 516
792 804
152 25
500 391
465 182
411 811
394 250
907 339
362 822
614 417
555 806
57 855
95 572
901 649
576 475
705 182
727 77
564 597
671 275
862 830
677 850
713 617
218 450
790 265
884 9
665 769
615 796
642 115
539 227
11 460
702 340
729 796
508 888
110 465
750 482
505 77
536 423
703 580
315 655
687 821
636 470
908 83
91 803
750 545
179 569
806 855
73 876
347 453
46 502
479 192
778 252
279 921
799 267
431 301
569 721
640 879
766 462
491 904
850 827
19 602
76 816
21 322
168 778
888 575
206 838
544 913
615 83
764 820
179 429
531 503
338 26
419 324
493 821
645 72
276 880
721 466
741 68
210 886
27 852
636 382
493 359
432 201
685 138
622 882
4 887
780 602
8 776
150 904
689 755
300 464
283 8
31 702
273 47
468 433
296 560
230 851
475 90
20 492
630 759
169 417
907 29
541 94
743 635
304 648
682 475
485 173
505 684
876 24
549 473
481 4
702 542
302 573
908 424
693 654
179 434
404 676
732 273
74 676
21 275
403 7
314 125
8 757
617 892
465 511
49 309
122 357
747 481
432 533
126 656
515 124
716 880
643 103
402 382
757 77
387 238
6 307
45 833
835 153
305 423
414 67
508 170
783 721
221 892
312 623
646 798
130 254
169 920
83 227
779 497
844 801
269 436
605 58
419 229
310 771
20 772
80 650
823 163
218 595
174 377
537 511
123 556
474 421
914 498
459 340
41 876
337 173
639 586
451 165
197 126
626 749
328 544
504 64
745 630
444 886
546 298
179 327
31 310
569 635
509 856
457 287
461 920
451 373
775 744
741 413
544 823
66 892
288 58
489 276
307 847
878 403
541 322
55 733
369 385
150 270
101 825
49 771
49 726
411 491
430 53
86 475
417 874
125 793
222 390
310 306
151 830
135 111
871 801
1 494
910 57
388 231
790 674
134 896
239 540
368 86
810 373
630 274
388 214
719 627
192 361
618 64
622 920
876 776
181 825
438 697
533 331
847 535
404 483
413 33
522 839
226 470
790 342
142 737
225 730
324 141
714 888
750 225
731 657
19 630
315 868
406 513
669 346
431 254
347 153

859 5524
81 414
773 300
406 830
380 311
568 128
276 729
587 317
795 808
672 29
360 601
293 11
331 328
114 600
454 22
611 145
335 305
338 503
412 574
434 34
593 799
334 635
444 143
136 680
601 308
766 606
456 709
718 669
847 315
408 616
410 186
560 602
787 423
784 18
822 766
664 712
174 301
675 456
241 780
666 141
154 857
200 55
408 36
135 83
253 46
859 274
78 171
854 477
67 71
307 756
739 729
793 465
484 36
588 434
327 670
39 106
385 583
688 280
13 651
849 549
547 572
566 456
517 156
646 451
104 412
697 361
848 779
783 287
169 81
170 698
847 248
516 9
762 35
50 423
322 640
767 310
853 313
253 541
325 112
435 464
407 654
580 290
475 444
408 499
451 439
362 6
344 517
20 704
262 397
559 745
585 102
241 808
788 700
580 190
285 326
513 227
822 407
475 120
794 764
696 578
489 324
617 64
413 83
713 629
664 15
518 158
238 542
380 264
94 554
564 270
30 742
132 146
544 306
821 778
818 512
606 419
623 515
181 540
628 792
467 323
251 488
539 279
814 415
579 758
763 373
126 599
282 231
182 628
754 675
666 257
577 378
277 273
434 716
844 775
196 342
439 146
315 416
372 183
524 20
687 440
139 254
349 641
788 336
44 64
48 3
401 710
206 839
752 789
401 599
107 770
647 290
280 372
603 110
768 217
734 788
739 638
6 313
312 52
590 395
460 212
115 271
605 827
535 528
497 133
320 365
307 25
606 415
520 422
32 768
160 309
832 359
13 232
454 442
573 16
114 791
746 548
321 663
410 167
247 646
24 588
850 296
174 278
712 729
491 638
537 274
289 745
220 455
180 629
92 137
220 374
340 686
759 771
116 775
372 425
305 464
825 745
281 415
17 833
788 74
39 240
855 114
788 57
403 29
479 782
816 770
379 170
773 188
595 670
172 565
8 457
144 761
238 829
494 427
173 770
47 793
29 510
278 455
652 752
666 564
388 274
106 729
126 540
807 529
773 641
800 289
13 12
531 435
559 1
165 802
439 391
500 151
173 343
46 31
603 814
37 504
705 390
629 239
222 591
67 522
448 536
847 201
127 583
224 797
832 604
837 709
20 97
613 366
473 773
788 110
462 549
502 534
855 22
139 849
670 153
454 548
471 670
829 552
756 632
388 178
674 658
312 859
593 702
715 239
716 188
400 285
238 571
350 17
178 158
2 400
331 452
773 741
796 778
654 152
516 153
4 437
460 823
745 700
118 686
410 159
745 589
690 502
245 714
175 755
694 385
480 437
79 343
803 11
96 372
663 636
494 10
570 100
698 17
536 428
171 499
366 114
8 724
119 334
502 626
251 830
87 172
381 591
502 749
674 232
569 6
687 594
320 612
817 752
394 515
87 498
754 141
38 210
389 780
821 777
795 399
169 146
501 333
94 212
558 711
429 625
758 414
752 227
236 396
439 297
321 650
305 781
821 717
753 655
383 476
799 494
691 241
149 741
331 718
480 132
177 164
572 43
724 222
282 297
348 58
799 157
654 688
234 177
254 180
135 5
608 93
755 798
600 377
840 32
641 49
292 695
333 29
522 231
181 10
613 55
109 280
627 359
848 392
464 385
748 753
549 625
670 499
35 836
319 624
801 465
269 155
161 626
578 229
438 685
856 110
692 796
287 472
771 391
719 453
614 741
84 76
212 121
452 680
804 325
679 647
791 73
343 582
254 359
793 669
280 584
813 290
468 449
180 848
605 49
185 574
675 447
223 688
119 611
370 183
696 635
824 560
185 250
275 489
608 421
473 465
792 347
748 612
70 31
570 592
204 246
806 851
217 69
109 175
353 389
106 695
359 683
91 733
776 45
532 746
2 397
40 232
374 183
788 5
49 622
53 826
539 79
226 350
509 775
54 584
837 255
692 534
110 851
311 200
352 391
408 409
658 629
562 379
859 633
111 732
295 549
466 149
231 663
111 845
194 523
68 112
402 572
404 18
285 273
405 514
155 781
689 341
157 215
514 467
555 300
744 355
545 709
566 172
234 589
754 23
794 858
69 771
568 583
14 47
558 680
467 425
126 686
2 510
593 607
856 439
19 565
156 746
795 453
433 132
783 684
165 709
496 740
118 687
82 244
157 710
268 161
148 511
205 762
727 597
718 264
794 472
414 489
457 586
614 120
335 617
447 355
414 120
841 812
150 534
355 512
393 803
510 592
261 380
767 229
24 240
111 641
323 493
398 473
796 308
155 676
109 64
375 1
434 469
363 569
180 17
273 849
716 451
318 805
248 775
778 746
105 694
74 655
576 709
229 733
359 610
843 81
834 308
297 134
83 661
166 416
369 564
387 405
500 298
763 484
411 267
107 120
126 420
273 302
738 173
282 391
412 774
432 503
196 336
509 247
1 326
537 308
193 770
305 200
16 773
370 430
599 547
358 343
327 208
2 731
353 565
573 769
100 377
195 71
577 600
107 768
721 12
774 22
47 688
158 379
234 645
323 457
678 717
369 59
354 433
172 738
711 399
187 787
278 544
665 784
652 718
13 772
75 215
596 403
317 203
344 242
100 753
832 354
767 379
198 34
36 857
18 700
2 345
829 132
80 653
273 266
518 768
672 688
557 208
166 686
432 260
315 81
214 833
361 499
608 796
438 602
444 554
16 372
328 83
435 857
319 287
818 426
215 222
119 610
67 108
492 743
328 640
697 131
99 684
304 575
566 368
293 756
130 819
540 714
27 342
644 207
631 41
118 132
31 759
596 439
611 146
634 209
635 264
416 572
737 728
749 657
255 216
245 466
853 659
508 676
774 737
206 295
98 756
192 369
804 88
180 96
349 293
461 683
7 355
202 537
585 472
589 512
135 76
263 155
50 548
650 279
119 582
241 508
715 735
858 325
200 359
593 240
483 280
473 274
807 141
9 208
692 482
753 212
593 291
754 246
95 50
354 232
57 527
576 617
169 197
182 845
678 70
226 1
444 72
253 226
222 237
440 191
74 44
278 178
541 760
467 119
331 548
35 296
137 792
782 540
718 414
172 262
373 387
380 609
650 553
619 324
50 633
115 101
276 122
500 728
105 232
821 290
508 227
660 224
100 469
195 507
432 630
436 102
509 632
739 583
693 58
40 726
313 326
243 517
809 678
699 758
575 395
613 836
798 750
587 361
754 282
648 243
356 578
198 293
484 554
169 33
482 40
142 364
335 376
468 90
767 326
749 351
507 564
107 123
715 376
199 683
316 389
500 346
817 703
47 279
787 708
286 580
499 275
475 266
607 621
738 396
774 459
520 694
336 739
614 138
452 622
361 48
278 629
689 434
33 694
305 425
417 215
779 129
224 389
333 492
742 776
157 158
859 108
421 752
178 452
726 367
363 663
216 703
846 564
643 758
49 789
126 773
398 212
649 186
531 751
165 88
633 544
649 779
670 659
505 149
801 576
377 183
514 667
183 612
529 210
61 136
430 455
342 659
277 592
403 781
435 412
13 455
760 490
575 833
444 453
626 201
92 503
535 183
573 352
810 850
637 557
429 424
214 838
507 20
515 315
222 737
410 503
96 208
593 491
785 835
831 256
779 173
102 708
111 126
773 391
8 750
473 422
293 755
579 230
678 750
720 48
27 440
427 386
52 29
757 720
394 680
605 796
677 447
147 737
772 187
611 149
724 348
438 117
304 687
732 679
235 121
408 765
46 341
559 2
153 459
680 56
739 191
387 650
376 15
618 775
24 371
22 357
408 185
229 303
253 185
146 789
110 546
718 349
651 164
500 854
194 521
633 436
11 210
345 572
627 146
479 585
484 81
362 629
663 827
557 340
744 357
21 600
460 136
595 703
643 673
670 446
692 402
485 781
142 230
550 163
558 686
8 198
469 377
93 445
558 537
654 236
674 758
821 581
183 684
312 555
763 474
785 28
40 85
350 310
689 632
541 759
505 119
644 736
59 320
664 697
554 757
81 537
577 700
64 361
576 500
79 163
804 204
438 70
811 728
278 767
419 311
361 228
718 40
538 518
472 742
125 244
438 275
168 787
199 435
219 273
831 62
152 709
821 229
380 379
331 89
61 784
816 555
288 116
95 17
122 145
477 753
758 354
481 758
249 274
288 338
416 647
109 774
174 834
472 414
575 590
559 85
373 34
279 350
11 676
176 561
349 74
850 433
46 90
323 563
50 169
803 202
846 300
847 29
278 808
448 579
345 809
628 492
495 183
426 618
432 215
842 526
759 827
595 842
248 247
509 840
837 666
531 547
362 589
185 76
332 165
370 112
613 52
11 504
80 149
66 456
543 622
19 66
42 97
9 120
216 404
412 386
38 76
631 71
835 578
808 470
313 797
344 133
614 664
135 529
801 673
754 707
351 595
838 99
629 102
131 775
794 205
608 798
185 579
505 562
142 566
224 740
225 782
835 85
640 69
806 598
313 163
613 40
471 758
665 551
261 84
29 216
806 304
52 742
821 221
401 226
420 602
424 669
189 131
749 75
38 104
593 743
407 189
341 425
568 483
677 271
216 72
117 338
820 313
514 636
98 33
49 611
287 441
252 826
681 102
619 798
14 573
273 389
174 199
267 355
172 284
619 461
278 720
793 636
641 144
558 267
405 836
552 591
662 404
450 350
481 19
251 790
181 79
369 487
646 11
117 833
29 11
401 428
772 693
99 347
96 775
730 202
599 508
278 487
502 449
520 98
154 288
784 695
61 207
641 835
696 402
642 303
184 853
793 681
779 586
301 386
586 80
541 792
254 13
34 647
629 207
723 6
63 638
309 730
408 5
603 714
82 229
465 69
410 718
458 774
309 109
312 319
85 470
621 661
345 170
184 215
631 348
725 663
800 818
599 162
378 290
159 781
643 668
844 11
397 301
181 615
51 7
571 844
112 55
44 836
634 164
286 793
24 808
679 671
666 266
614 588
253 572
766 746
571 264
370 715
614 430
157 679
568 838
241 719
46 676
805 665
152 247
667 680
510 567
16 550
215 21
401 697
557 266
46 736
402 805
851 297
414 4
127 85
189 412
515 756
731 743
277 779
98 819
856 340
255 370
635 496
374 503
491 41
182 597
245 507
174 57
66 734
452 827
272 65
118 746
286 422
107 391
624 299
225 700
554 714
24 593
118 517
728 616
279 725
466 828
430 611
738 752
101 208
105 21
603 306
822 80
422 610
436 826
24 188
66 267
364 548
128 362
536 23
631 486
699 594
100 205
119 163
825 168
388 106
597 404
782 318
273 798
69 700
786 212
844 418
460 475
429 548
133 476
799 433
654 22
841 414
606 158
199 732
535 390
131 68
481 31
690 237
250 340
325 134
573 160
231 92
130 7
810 694
117 149
559 354
407 721
102 203
810 820
585 76
713 7
438 120
405 97
267 64
223 771
67 303
432 144
345 657
223 191
600 685
306 776
586 723
251 809
713 556
553 775
95 648
748 678
323 501
507 112
787 418
384 671
562 817
375 430
421 19
60 292
478 239
596 470
129 452
445 367
641 834
645 550
525 208
672 652
122 319
714 27
576 40
5 808
840 589
850 346
743 229
839 534
571 13
614 274
376 156
542 606
379 700
556 302
485 56
699 222
349 601
152 11
148 63
205 58
371 814
802 76
859 5
96 599
225 821
673 217
479 845
52 177
143 26
114 470
351 391
617 501
749 240
403 310
208 814
368 420
672 236
492 125
457 366
518 623
853 20
178 812
587 72
643 458
240 125
424 116
59 384
95 326
173 504
637 804
676 352
477 179
25 306
783 829
556 492
675 390
168 580
520 697
718 155
96 166
812 164
794 683
633 385
673 554
730 557
103 541
34 228
664 851
744 385
11 284
603 326
698 391
157 155
664 113
313 133
66 343
33 6
787 365
206 619
380 298
761 781
354 333
530 456
824 85
401 260
365 203
596 697
460 432
415 636
75 203
387 215
151 150
198 151
455 764
645 348
575 543
579 728
799 683
149 546
136 691
545 713
139 421
736 487
365 817
477 151
61 472
236 546
510 65
832 825
641 709
127 728
348 27
496 782
334 34
172 457
201 303
689 66
488 797
361 17
418 56
702 728
758 756
214 406
675 128
252 204
197 205
506 690
623 141
219 347
699 597
247 105
216 451
39 368
123 20
824 113
843 831
716 7
612 240
117 574
227 82
602 426
734 679
203 45
800 89
32 179
715 86
74 338
540 27
743 827
819 212
86 469
762 22
139 739
819 69
362 504
804 279
294 561
631 760
282 72
331 213
465 300
846 724
637 718
799 195
328 228
447 741
567 212
663 737
766 108
535 609
758 720
816 119
90 836
327 625
52 440
103 779
587 611
588 312
795 638
356 372
513 757
95 62
209 687
801 291
248 718
355 274
160 260
220 748
377 415
195 778
335 742
810 469
278 199
575 599
669 526
504 790
691 106
822 768
806 275
640 828
164 170
115 700
739 342
245 1
726 560
432 448
235 277
815 8
791 338
559 758
317 743
14 825
384 274
713 179
417 350
325 252
607 811
595 179
505 857
54 4
522 378
698 27
786 710
309 107
811 153
670 108
702 349
649 343
595 751
488 273
226 765
854 507
109 80
161 767
626 461
520 290
795 233
796 70
506 174
737 683
79 844
559 86
178 15
334 698
541 728
525 243
654 489
178 414
634 503
766 744
343 553
419 105
154 198
36 373
196 115
332 627
427 833
528 503
46 533
660 273
534 318
674 437
411 610
416 284
590 240
800 626
29 64
744 207
68 521
247 53
544 341
218 305
74 684
520 478
799 773
800 173
654 56
136 100
541 410
783 461
109 632
455 652
739 257
145 314
692 89
739 366
690 86
193 598
236 652
537 761
408 387
844 802
780 58
488 608
439 207
79 356
447 704
819 597
292 578
196 230
455 391
281 608
732 327
627 43
593 143
828 597
462 720
691 774
712 235
663 563
617 291
630 555
354 366
689 476
317 459
445 246
285 621
269 296
386 708
792 639
596 589
668 210
562 621
810 367
671 163
531 331
807 526
832 346
235 125
236 466
810 270
719 423
166 493
49 753
658 845
219 641
595 346
413 737
175 390
828 492
79 90
101 574
549 262
291 106
311 119
707 658
525 285
174 309
337 361
634 513
275 591
812 222
337 250
231 738
180 592
695 179
642 829
824 611
453 693
632 256
464 146
245 819
161 7
151 676
717 155
337 727
817 717
473 55
475 577
575 402
856 752
639 700
221 627
174 699
268 644
35 659
681 165
282 792
397 121
457 470
772 155
643 142
102 355
652 320
853 705
691 154
396 6
478 414
316 365
67 606
803 210
399 647
629 204
810 790
585 110
34 508
625 797
37 743
286 158
471 134
275 619
465 41
732 489
55 372
228 239
559 821
380 34
369 311
774 44
392 378
393 7
471 714
475 655
833 529
821 112
152 713
602 65
311 823
169 778
173 818
542 325
781 563
194 463
859 451
192 724
236 229
130 534
139 844
37 101
724 289
623 745
791 34
505 335
235 210
210 780
323 567
430 249
343 552
235 355
188 827
542 670
690 405
158 647
738 393
150 379
228 591
410 412
675 392
101 296
689 437
564 775
447 397
307 647
197 743
20 32
778 116
55 638
278 524
5 214
850 565
651 684
160 129
462 774
32 459
363 676
679 235
810 86
403 340
756 814
134 548
564 153
381 831
701 256
448 426
288 259
61 18
189 93
269 229
843 192
126 635
348 721
187 725
151 118
619 339
746 703
286 538
145 714
387 661
444 450
799 344
305 157
90 733
811 663
168 403
116 105
253 144
348 132
480 372
67 308
109 606
721 823
258 559
443 489
231 590
234 446
171 419
134 179
540 546
502 701
213 326
160 830
614 606
328 612
38 819
699 599
152 658
437 703
366 271
40 546
41 271
19 320
520 507
460 470
835 546
436 415
166 256
79 737
540 21
8 190
579 73
819 214
783 435
456 528
154 379
505 37
14 743
662 659
139 626
176 671
331 574
254 394
233 397
614 373
172 280
136 798
84 700
324 227
326 529
63 582
29 594
562 2
309 706
111 842
813 178
608 28
314 155
498 396
79 409
730 739
103 551
604 200
498 31
266 489
603 384
760 677
403 65
260 350
678 700
543 546
857 303
95 56
759 65
854 191
194 694
655 442
645 240
248 720
344 35
531 249
131 135
670 748
36 776
499 622
123 638
645 547
369 658
583 347
417 784
539 456
44 529
767 31
816 457
525 431
103 135
245 722
304 140
141 567
606 693
194 759
266 216
1 29
206 86
803 384
432 251
600 827
419 745
702 496
803 483
475 654
773 363
547 626
252 468
626 233
347 456
755 503
178 630
385 836
771 425
859 450
794 738
494 619
498 743
252 553
622 755
740 726
251 483
87 857
481 378
801 559
658 771
752 106
88 290
624 180
187 406
850 426
390 521
145 459
799 359
767 51
558 101
49 107
370 425
135 125
92 190
258 584
660 275
195 487
500 570
358 680
485 315
712 241
252 26
454 698
565 796
115 274
428 589
690 824
323 289
293 729
787 270
655 175
587 557
75 273
431 316
824 88
645 22
506 494
151 802
173 678
249 320
731 616
491 271
11 658
308 638
352 550
795 100
444 14
815 105
630 56
117 411
637 852
197 467
454 450
247 665
50 247
128 661
763 743
692 681
197 245
509 291
580 586
232 615
508 492
573 604
478 768
664 771
281 501
35 140
793 451
445 560
603 468
159 530
74 778
256 339
260 379
394 481
494 342
759 350
422 34
170 27
330 709
705 823
355 106
193 91
601 838
235 704
606 465
313 610
818 705
137 770
706 266
285 653
66 540
231 378
253 670
515 833
273 350
330 153
117 127
654 308
455 515
754 270
465 519
525 57
508 675
408 481
432 295
699 379
257 140
499 465
120 26
407 578
487 656
24 288
832 695
115 142
727 431
855 346
380 826
732 7
660 356
614 39
263 289
12 615
534 740
419 302
371 854
389 347
656 530
206 644
428 390
129 551
593 122
850 619
483 366
855 158
569 497
398 453
259 513
621 317
358 813
540 805
803 769
729 72
401 82
662 594
226 24
847 707
652 499
568 738
218 807
287 657
520 837
624 137
128 686
573 192
685 390
540 399
412 826
70 314
275 798
165 606
224 246
634 321
767 239
408 364
828 720
633 376
722 62
341 756
438 378
500 551
546 355
566 102
548 469
756 272
669 137
801 113
711 530
226 760
327 687
479 508
688 747
843 73
184 314
829 406
374 125
852 856
19 601
322 762
848 670
644 706
852 429
68 508
128 569
758 851
139 155
585 191
841 5
642 46
225 312
340 607
421 826
225 175
33 734
399 443
756 86
495 34
148 561
85 802
698 58
95 558
354 756
711 720
261 233
815 726
630 851
859 259
285 789
735 269
256 517
187 811
829 728
526 808
531 82
715 209
18 3
829 329
796 54
280 792
804 537
852 781
696 369
169 407
151 3
305 727
667 33
460 737
675 618
148 746
126 109
466 501
25 274
366 661
542 760
581 158
253 829
309 635
184 259
581 47
249 590
819 598
474 685
370 458
225 437
278 697
34 149
381 202
219 147
115 34
855 294
698 478
593 140
332 619
631 509
632 453
566 328
95 800
337 744
322 92
360 791
381 767
575 123
389 826
467 694
494 433
522 708
691 711
160 397
554 53
60 430
322 401
50 295
829 478
170 717
799 762
505 186
95 373
28 338
786 258
331 419
9 425
525 167
715 313
511 170
353 88
226 441
577 602
73 427
818 503
842 497
560 770
558 269
399 499
257 478
708 41
418 203
682 652
371 857
100 313
194 853
218 95
262 762
697 43
455 239
184 666
341 132
218 369
269 504
95 58
434 264
43 548
69 556
14 423
166 290
597 6
175 208
786 471
236 418
587 129
761 246
83 478
842 81
572 170
804 21
388 233
667 823
638 270
750 836
732 855
434 686
495 811
118 582
96 32
353 695
429 378
52 158
676 781
736 112
534 423
68 93
510 462
738 693
171 348
458 768
786 706
327 742
648 703
81 504
764 155
824 352
806 400
219 278
494 156
595 755
299 478
54 836
566 304
144 684
472 809
692 125
783 166
130 610
117 754
545 853
365 324
624 746
696 78
577 164
669 716
598 210
679 439
666 626
191 745
36 814
535 340
701 76
761 289
245 112
329 30
779 620
763 733
747 48
291 86
239 628
279 489
413 599
742 452
447 680
763 827
241 705
104 583
719 845
23 296
171 739
91 496
129 211
121 826
119 292
87 330
401 477
328 587
422 437
337 643
322 121
698 144
806 271
294 243
484 709
325 711
448 318
201 602
271 342
696 131
477 814
39 619
356 765
645 327
672 491
348 684
637 440
287 339
93 128
477 97
225 8
502 476
748 476
749 565
131 780
387 662
10 583
213 648
783 796
504 415
325 351
646 587
439 203
283 357
614 223
284 776
432 27
362 470
454 398
822 197
346 53
665 703
631 508
208 62
411 755
48 663
733 728
612 415
63 449
268 815
152 516
282 767
259 709
423 590
482 390
688 549
375 369
674 520
535 585
539 394
103 802
669 771
126 696
398 316
675 811
606 241
652 457
767 262
804 284
821 666
22 817
294 554
387 468
357 686
305 835
783 594
432 330
714 112
855 18
16 152
699 381
353 825
617 532
407 604
180 830
831 761
667 584
139 51
512 567
842 510
58 65
578 776
505 832
223 670
800 812
704 610
723 318
63 801
485 224
489 741
807 311
186 719
363 809
479 855
760 535
523 341
673 160
644 487
152 753
379 48
381 642
531 28
706 74
191 534
435 96
683 838
159 570
161 560
438 752
458 18
496 417
1 692
610 240
368 235
84 31
502 378
841 444
3 224
16 117
145 663
724 205
429 87
487 289
624 361
845 591
831 652
580 396
306 629
110 599
231 685
785 737
492 770
699 212
591 290
7 237
268 746
849 208
78 258
542 141
128 441
104 40
721 175
333 289
707 492
623 192
679 114
111 412
320 639
324 183
341 167
587 659
414 589
829 690
136 65
345 713
184 333
421 160
479 510
14 17
142 202
278 410
818 647
532 709
754 501
402 414
424 122
416 526
847 673
596 359
250 295
255 10
108 85
120 775
71 355
283 719
36 13
304 333
267 339
658 544
71 757
723 186
600 303
690 352
230 41
534 465
662 154
465 504
381 36
195 501
261 420
765 158
824 688
457 765
580 21
229 210
437 389
479 798
191 106
664 486
497 107
575 240
764 414
109 47
381 842
791 553
114 327
762 683
682 40
421 68
531 197
130 758
23 353
455 762
614 769
799 657
710 372
37 150
115 714
25 359
213 550
466 386
505 728
792 314
334 437
819 555
382 385
206 243
816 355
233 183
243 106
480 264
832 733
718 249
242 782
443 493
803 349
147 481
469 780
684 72
449 537
354 37
122 682
266 320
531 692
843 582
756 761
583 632
542 487
323 431
161 344
822 650
19 102
518 340
449 69
649 11
588 240
331 25
118 355
467 553
801 281
799 855
213 134
679 638
717 647
540 128
115 678
421 299
425 680
628 616
723 788
332 334
515 96
760 271
260 653
305 44
123 805
141 446
344 566
573 411
261 841
408 275
260 216
699 65
292 540
11 124
486 478
694 211
253 33
756 392
258 527
298 736
585 288
423 88
449 741
858 331
294 463
80 86
856 582
677 632
699 740
369 249
337 603
319 735
226 821
479 389
264 202
283 166
787 246
502 89
677 299
481 338
245 233
322 610
344 214
696 299
847 716
47 404
568 741
52 574
491 587
648 285
705 348
666 417
171 773
813 718
654 390
624 283
509 375
554 762
421 545
687 314
637 635
414 314
845 590
515 378
591 15
426 639
174 453
603 597
59 428
337 217
720 550
96 256
322 745
19 660
696 591
256 240
483 465
335 656
63 58
674 141
345 257
381 579
399 100
613 104
177 828
23 131
364 762
627 260
496 145
673 429
568 69
679 339
8 28
248 641
701 360
169 47
122 9
782 27
674 672
568 419
218 740
49 594
539 147
286 656
841 351
199 669
168 15
782 610
596 70
442 212
291 41
77 456
319 415
197 831
129 55
694 232
842 567
241 592
558 331
586 560
579 329
401 689
309 472
312 372
850 780
713 540
532 64
579 103
302 770
333 708
564 320
78 680
172 725
782 298
288 58
107 279
847 832
114 324
701 766
194 300
702 727
218 422
8 56
246 504
619 638
490 550
725 6
174 756
126 749
401 201
443 725
170 615
501 397
434 48
753 726
247 740
71 442
109 515
852 460
520 717
799 101
681 606
522 474
64 584
637 261
276 85
152 219
86 612
138 37
587 798
217 661
521 461
160 819
531 804
180 446
304 768
630 277
414 650
294 108
448 284
401 106
645 135
316 771
316 708
312 537
353 371
657 91
731 790
285 478
770 781
19 771
500 228
373 146
692 538
367 155
81 555
481 241
466 103
261 266
776 740
101 393
571 185
542 618
214 747
513 145
405 843
110 266
149 342
161 168
713 587
822 167
63 1
593 399
260 490
854 470
307 785
511 721
483 112
34 602
274 77
91 644
283 86
454 221
407 73
834 343
587 53
588 842
35 503
814 367
842 92
540 395
693 41
124 828
552 73
538 183
383 269
462 180
179 594
840 339
586 827
427 717
689 50
742 57
637 461
608 172
647 415
190 350
413 274
626 768
821 457
345 256
428 757
161 406
719 64
494 274
251 43
749 232
455 93
94 423
386 612
14 100
143 256
804 165
167 446
690 326
711 330
540 43
139 834
160 295
691 478
231 297
525 155
785 246
624 90
531 502
278 85
473 755
230 461
158 638
748 266
396 439
418 731
1 289
573 337
248 28
399 737
258 291
667 107
396 661
509 124
555 676
846 421
448 716
680 423
495 46
121 733
129 208
115 507
836 441
450 364
290 453
826 243
617 46
637 51
263 523
109 827
381 614
61 616
195 766
452 203
95 857
631 315
152 292
215 592
630 625
811 297
61 842
707 848
740 352
725 404
564 22
730 314
624 777
424 457
711 54
268 473
239 838
184 568
359 489
718 656
653 91
22 10
794 211
481 212
413 647
499 504
279 526
694 427
633 331
358 412
736 76
444 685
614 737
276 86
33 367
257 359
637 102
67 8
346 48
509 580
5 163
617 155
52 194
219 339
95 812
388 83
464 632
138 713
800 81
123 266
554 192
777 359
195 790
571 655
294 734
264 413
193 489
783 558
221 443
258 167
67 845
13 399
120 833
672 744
306 362
370 697
761 56
598 709
609 252
503 58
510 244
128 771
236 796
789 210
646 709
333 246
279 752
263 143
486 476
317 279
405 842
744 434
410 752
719 695
817 395
660 71
686 663
601 745
546 58
346 20
147 221
194 447
33 198
816 683
545 99
101 384
20 427
213 70
566 586
554 386
477 625
648 195
322 350
400 508
575 377
509 187
196 798
493 632
444 92
424 16
325 208
109 569
539 38
334 678
634 104
810 27
182 490
852 406
157 808
193 535
130 224
828 399
172 363
767 812
130 147
477 328
491 564
37 736
408 224
101 317
470 610
346 436
618 120
858 523
609 363
257 318
441 201
362 717
111 74
138 250
530 680
220 594
560 415
458 750
647 700
696 798
398 426
445 853
484 813
507 132
820 54
605 808
679 333
460 389
751 591
796 94
606 317
50 491
253 720
514 570
75 772
835 798
594 639
421 737
95 478
23 173
122 344
269 813
187 428
358 151
44 771
516 385
370 705
580 604
654 531
658 686
371 217
499 396
747 338
344 671
822 467
276 435
81 173
375 519
232 303
285 315
398 594
533 21
613 327
704 685
464 194
33 307
111 110
39 253
47 726
241 257
422 350
671 409
734 775
593 69
61 615
498 771
359 838
613 4
237 102
55 789
479 57
209 198
433 849
821 206
694 628
726 493
721 426
815 416
325 596
759 7
482 81
94 162
375 172
374 82
182 769
23 467
652 545
374 461
436 80
255 43
687 158
680 72
148 614
488 729
748 367
633 100
37 582
224 179
154 802
153 490
309 759
334 90
580 342
394 87
858 592
140 695
694 202
185 810
738 646
81 26
500 612
263 328
660 172
642 627
807 156
819 709
782 490
159 681
682 838
369 65
81 341
174 285
76 72
204 149
77 737
484 741
136 28
570 725
306 582
13 172
696 274
1 684
699 485
420 1
473 697
331 567
304 441
464 620
714 124
393 602
261 805
690 340
710 787
127 743
646 555
115 231
558 423
374 772
788 680
480 279
730 292
135 67
323 629
336 310
223 555
613 159
171 388
707 214
229 134
721 54
265 216
265 41
105 426
802 256
531 834
401 409
494 372
858 27
627 244
241 43
797 140
484 665
820 83
269 499
754 235
167 404
722 845
825 428
701 321
773 820
98 246
598 203
398 779
682 382
558 549
566 772
588 836
754 604
178 96
689 628
407 809
429 177
196 588
394 224
760 447
853 698
359 129
148 542
794 8
64 357
671 834
514 155
111 657
84 735
302 201
326 647
812 186
278 634
855 372
508 129
544 791
829 778
850 807
299 55
169 711
557 428
850 694
190 303
265 244
176 393
626 145
458 751
773 340
673 64
527 357
757 208
649 431
744 107
816 584
856 549
854 496
378 297
363 567
233 727
835 453
673 418
8 31
123 324
485 853
420 788
114 513
136 419
98 13
653 851
586 310
126 583
668 583
230 737
535 49
305 830
364 351
663 15
847 338
204 752
754 802
629 406
666 384
439 77
591 686
516 529
793 93
245 544
339 423
748 719
254 822
391 797
840 47
197 606
438 344
613 326
267 385
510 638
462 765
854 707
198 807
532 67
734 772
574 685
206 625
837 817
843 700
455 178
848 22
835 272
817 781
89 150
762 695
29 490
45 12
421 205
716 100
593 759
98 207
43 722
27 201
484 544
52 812
805 298
645 305
79 533
448 465
605 557
752 62
364 300
809 73
642 379
278 119
121 210
269 848
473 717
250 537
292 774
84 672
837 46
286 316
185 591
799 102
254 195
813 70
337 149
820 742
782 121
188 676
299 597
181 349
510 523
281 623
637 100
309 259
114 163
775 300
462 729
564 513
180 266
268 853
285 209
329 833
336 151
337 738
762 600
522 718
661 761
701 316
5 357
126 701
398 812
38 503
696 275
45 602
282 188
16 352
783 552
182 669
218 842
277 391
121 125
614 515
664 682
757 57
232 684
55 212
331 788
353 828
727 582
710 784
452 32
646 552
336 521
337 352
10 326
382 304
803 492
290 41
96 376
314 163
722 228
543 359
380 23
719 550
157 89
214 170
181 83
332 188
688 265
835 202
449 283
485 461
806 505
319 842
60 618
75 431
425 204
501 377
231 433
285 761
514 677
166 292
635 437
448 25
505 88
734 427
516 250
682 270
230 762
729 297
1 568
502 494
250 383
295 779
192 316
735 549
221 208
442 175
766 468
449 778
153 338
764 604
360 266
241 569
651 388
25 776
318 647
51 776
369 349
426 300
447 118
81 611
287 537
211 787
475 631
366 493
77 838
195 263
848 43
136 183
662 4
117 587
670 391
751 728
844 398
296 396
575 270
777 451
857 45
14 26
181 619
57 678
294 661
141 62
17 240
587 365
538 434
857 153
633 354
66 718
697 848
572 68
793 657
466 411
230 240
359 164
712 847
727 665
547 367
605 61
84 764
380 667
253 131
599 560
110 487
44 49
580 131
15 592
203 656
298 676
215 41
570 8
147 313
450 154
61 15
186 640
506 677
413 439
713 657
471 737
247 414
124 203
114 497
373 548
730 462
96 355
30 578
225 577
735 155
701 279
479 473
264 134
801 481
430 465
801 707
166 511
424 234
249 27
277 467
280 553
295 723
804 43
111 603
577 631
651 456
619 476
323 683
651 345
279 632
49 143
234 133
700 310
537 3
295 279
138 94
309 165
599 826
346 140
220 613
668 753
7 833
859 70
603 202
825 180
242 350
321 149
284 31
330 717
705 611
341 459
398 130
804 548
739 73
522 545
193 381
815 649
212 62
732 693
844 523
205 787
496 665
339 42
277 503
595 356
758 240
268 222
330 355
67 620
766 302
287 83
44 324
491 589
580 293
159 186
225 490
172 55
154 550
267 205
718 222
546 683
315 729
50 678
146 553
608 132
135 355
149 451
473 355
233 611
416 205
651 751
484 820
199 227
596 661
820 93
288 102
494 596
809 853
541 310
374 105
455 296
577 66
335 374
448 26
645 409
579 669
283 328
592 377
586 355
142 445
454 499
516 138
60 30
199 581
225 74
796 569
511 452
651 387
101 600
103 190
430 858
163 125
754 293
250 705
14 772
93 789
794 296
334 97
64 517
613 479
375 572
592 598
495 391
225 615
746 338
30 427
177 597
629 647
405 589
764 146
368 611
579 31
800 720
88 546
506 753
588 343
102 845
692 469
506 352
380 393
87 626
783 220
382 753
796 89
174 733
737 567
627 839
484 248
597 35
486 738
573 26
176 592
799 473
141 287
763 722
111 582
391 232
563 683
455 670
174 379
175 678
794 268
499 598
261 430
698 83
293 797
479 614
543 425
693 476
401 692
275 367
454 691
381 497
368 560
247 488
545 447
711 494
330 583
691 578
479 75
672 149
319 530
588 89
643 389
558 752
27 120
805 441
809 62
815 112
827 590
581 467
265 797
288 618
28 612
54 748
79 75
359 203
258 501
348 120
68 367
680 28
461 776
486 165
215 377
471 211
1 35
662 184
509 275
220 320
577 769
63 778
570 442
668 835
711 799
603 446
831 134
856 850
11 389
593 21
80 96
650 212
712 357
454 558
38 809
665 561
30 669
488 340
553 560
682 212
541 15
801 162
135 133
450 675
783 231
218 391
574 56
481 735
759 228
856 317
108 474
754 420
520 116
795 170
174 789
174 205
514 590
567 134
679 628
619 389
838 415
16 354
71 260
573 66
114 809
205 628
226 433
62 827
196 265
756 42
331 790
233 260
126 89
555 851
112 647
258 743
277 57
334 10
172 417
509 32
138 480
394 118
103 456
642 816
555 625
794 748
488 244
513 5
812 503
372 526
565 729
586 708
806 541
375 238
489 639
570 176
593 113
422 357
397 601
424 585
408 113
195 698
325 759
174 754
276 537
651 639
446 728
454 839
455 410
494 708
9 668
307 419
117 425
84 38
491 236
258 135
652 202
295 666
261 774
742 321
837 83
549 303
448 741
137 300
262 146
655 665
637 441
829 775
744 289
510 720
115 256
536 92
481 859
855 181
846 552
394 561
496 151
242 359
484 696
810 8
312 144
29 436
434 292
772 76
421 58
8 145
523 818
588 788
572 497
574 323
117 284
495 659
282 242
408 516
763 612
219 706
810 735
547 384
509 277
609 129
462 149
796 653
525 457
442 65
813 462
675 437
576 350
758 586
444 646
802 784
55 316
712 29
486 408
825 738
185 131
276 46
764 183
299 306
657 676
569 48
846 516
623 338
192 668
268 609
435 48
424 319
778 526
247 815
335 803
95 139
79 534
268 327
847 541
409 431
505 22
141 32
141 550
611 246
644 792
577 299
763 512
36 40
791 200
776 639
226 426
763 753
482 755
804 164
515 299
7 12
565 546
858 604
418 77
180 759
715 798
223 563
261 274
450 333
789 780
815 780
273 76
697 165
181 124
209 259
427 212
281 268
674 207
77 780
34 705
720 32
631 282
596 738
189 148
94 243
359 256
312 688
645 274
423 676
491 114
737 638
113 388
558 636
374 301
800 308
718 838
648 360
409 308
213 594
732 550
697 797
11 681
713 386
236 740
258 450
67 622
269 706
822 381
740 567
650 693
23 661
29 728
851 524
629 761
417 175
93 578
372 527
194 827
512 476
284 296
394 312
180 489
613 125
320 764
119 228
65 808
180 15
368 295
403 296
591 827
852 761
122 794
91 621
844 101
760 397
644 156
516 86
706 356
273 167
61 192
303 775
74 93
36 17
239 746
475 384
718 636
254 60
236 607
512 636
604 274
96 57
715 792
500 698
841 706
152 25
157 280
124 365
614 417
354 742
293 601
848 256
707 153
359 224
747 838
109 289
383 745
742 639
380 276
817 741
200 737
649 60
248 100
733 72
329 457
812 830
743 746
430 329
644 7
709 551
705 128
192 125
514 345
71 604
839 458
822 539
771 203
850 304
841 51
816 93
381 173
171 435
333 521
181 246
555 457
538 553
850 775
688 246
427 90
551 797
167 20
258 784
388 839
778 459
673 247
360 150
533 355
320 548
33 129
824 244
192 622
336 320
701 419
259 720
815 431
598 21
624 688
252 721
448 422
294 805
763 180
13 131
360 737
199 856
117 511
658 203
187 737
830 597
482 831
221 450
315 133
26 208
500 143
852 100
44 782
75 517
738 351
645 753
170 787
283 592
514 172
718 436
286 288
434 623
371 184
177 471
508 487
89 679
353 758
638 41
641 497
609 293
172 221
115 675
154 739
846 212
545 383
501 591
393 212
364 825
698 750
388 89
820 68
677 477
601 851
169 223
743 733
857 106
52 780
139 640
495 595
113 443
558 637
117 467
373 121
139 529
841 399
804 261
329 227
754 644
495 714
178 456
841 280
842 35
535 4
488 683
641 529
642 125
382 90
521 326
16 800
698 836
241 823
172 419
428 53
698 823
832 561
817 163
30 144
803 400
54 10
536 309
789 77
603 367
402 698
495 477
483 445
724 741
464 30
707 106
712 308
454 761
647 342
108 628
678 680
284 463
730 43
434 476
518 336
734 546
449 57
695 808
180 191
679 167
593 674
174 597
771 274
221 759
448 29
515 793
458 106
459 703
767 301
532 776
325 107
92 362
115 571
97 4
249 833
514 229
666 472
851 92
559 279
799 260
306 411
474 585
37 537
276 327
794 388
776 647
172 496
595 208
101 295
646 810
519 56
372 357
450 259
108 811
108 504
259 840
115 258
664 403
858 73
669 15
109 66
130 632
532 607
56 272
60 360
839 22
13 166
739 386
679 574
349 183
387 390
583 162
738 201
577 333
101 647
122 354
382 176
850 414
533 603
609 62
230 38
400 727
521 797
258 685
723 57
853 812
276 441
405 795
667 696
417 229
110 346
220 750
516 146
565 750
256 212
320 775
800 529
543 315
329 133
394 497
815 584
527 324
454 592
554 290
368 273
95 838
678 835
679 158
36 519
308 300
143 658
644 85
222 121
478 7
173 555
579 568
123 724
674 732
786 386
821 49
767 485
59 298
371 492
600 246
16 39
282 502
374 528
839 574
295 604
576 414
444 582
641 726
823 202
168 384
150 272
637 684
34 313
333 203
79 283
337 136
279 741
487 582
741 303
324 134
699 791
152 82
466 590
341 546
587 790
756 339
295 113
103 788
613 71
428 549
858 158
643 806
535 780
242 203
191 262
307 170
199 136
682 98
619 709
734 662
424 285
339 746
835 529
568 500
139 711
532 535
147 755
657 194
336 553
472 440
325 229
681 85
499 526
248 270
11 602
559 397
616 717
197 76
112 476
79 40
440 830
719 120
658 752
642 237
606 714
613 412
430 540
794 358
381 114
1 12
651 214
86 553
345 737
253 56
384 35
280 116
231 609
261 372
834 598
263 426
622 425
751 15
149 463
831 167
454 766
353 564
483 154
707 395
673 47
325 756
832 588
377 733
473 178
19 250
482 19
653 728
541 419
587 45
773 720
706 661
356 782
538 458
245 18
325 106
442 342
774 688
101 469
46 302
659 769
533 792
58 504
850 108
673 685
215 290
132 790
59 798
150 587
266 92
471 5
138 18
836 77
640 240
660 243
315 598
30 431
772 612
314 418
234 669
200 517
322 104
855 182
432 744
416 237
796 256
29 367
13 554
753 229
203 21
132 425
192 802
394 798
696 242
407 244
38 304
744 557
783 510
112 183
387 393
500 262
122 496
13 127
568 650
611 812
83 391
335 229
233 423
766 283
800 749
486 34
839 746
466 182
818 291
356 212
641 378
291 417
44 99
177 314
718 235
50 667
767 634
263 349
343 211
420 755
778 102
434 477
623 8
498 171
651 845
727 62
854 423
820 243
587 728
109 404
223 156
9 110
734 565
322 255
506 384
329 538
181 729
730 258
640 550
75 251
469 463
294 682
634 201
800 299
420 20
95 426
135 515
282 213
528 741
732 605
509 468
199 632
349 11
282 68
158 563
13 500
128 610
308 784
754 832
499 339
505 742
625 757
37 591
407 589
230 112
366 528
336 547
837 441
533 848
828 684
617 839
615 244
694 205
471 92
148 161
372 284
727 271
430 739
234 416
841 664
718 118
632 243
836 389
214 273
416 472
346 137
475 807
169 752
498 124
337 826
786 513
733 700
242 121
80 100
462 594
104 106
800 796
267 753
460 230
327 86
534 275
715 233
832 395
175 83
87 679
331 369
677 230
647 833
448 51
47 21
216 15
472 441
667 25
117 66
476 463
517 367
276 201
786 458
524 789
541 657
783 724
715 642
220 252
679 807
629 72
98 640
24 702
520 515
372 86
434 529
71 836
185 621
23 545
500 818
67 369
707 202
580 68
539 101
825 686
842 628
242 808
298 726
180 330
458 784
419 618
494 29
646 110
9 323
157 83
518 52
523 334
312 19
144 700
87 500
471 533
771 125
429 742
485 826
853 15
341 347
514 703
293 216
593 578
253 268
383 65
799 595
620 44
743 310
410 70
763 604
269 769
678 423
758 209
61 447
230 425
228 602
582 301
219 777
419 347
2 849
207 28
153 427
702 817
176 211
346 303
333 99
10 70
346 222
533 106
773 216
774 140
318 280
177 584
280 367
744 180
312 64
422 389
777 154
850 256
588 332
535 823
811 439
815 551
707 358
13 553
530 469
753 228
377 708
189 360
161 655
565 366
772 72
23 342
321 71
562 548
744 671
2 431
23 455
383 101
509 463
364 342
710 33
317 569
383 296
22 470
743 56
325 367
617 729
436 611
229 404
572 708
713 351
495 49
278 537
552 618
238 269
556 146
760 781
284 589
849 41
851 551
312 237
640 507
788 163
480 786
468 615
215 762
143 73
564 249
178 524
160 15
238 824
189 140
269 308
244 684
796 11
598 155
449 144
203 385
701 130
652 586
231 503
14 363
786 384
425 808
620 485
607 249
757 780
593 795
649 537
349 10
395 814
690 473
199 785
258 365
847 93
261 858
576 271
261 747
138 358
581 18
245 525
673 596
177 293
231 750
785 678
309 352
181 166
711 736
534 746
572 537
292 511
637 125
379 341
287 590
185 12
462 544
633 823
289 62
518 73
147 145
481 790
189 605
138 781
789 746
542 466
735 455
119 34
492 144
477 612
613 648
32 85
109 153
807 728
829 352
429 530
532 529
130 721
536 596
307 507
238 673
776 338
430 503
821 750
715 423
302 45
364 414
457 4
413 753
581 212
818 134
676 56
110 724
310 490
520 516
475 326
348 200
558 431
824 789
718 177
573 626
651 200
450 395
603 755
345 743
107 512
721 780
727 274
154 706
159 599
163 528
546 709
765 445
821 507
111 287
593 116
483 156
506 743
177 781
161 384
807 9
670 259
263 731
269 410
307 795
255 625
739 828
596 659
463 612
467 609
599 280
645 80
441 594
595 112
749 28
472 120
735 217
467 447
259 459
575 753
269 94
435 266
135 565
744 578
505 466
13 89
23 128
122 333
509 411
666 436
836 612
767 12
130 249
168 316
853 563
215 478
70 470
220 487
186 179
474 374
756 64
370 263
300 207
730 551
16 557
366 811
567 297
846 224
247 365
358 526
87 196
617 201
824 365
263 686
380 272
575 81
816 576
144 665
333 567
579 803
692 66
795 843
725 390
247 838
715 176
716 207
689 661
526 120
356 812
766 575
93 143
169 327
70 129
625 638
793 666
709 470
16 77
295 693
651 421
487 377
839 740
766 507
495 195
480 376
615 210
48 92
66 639
33 744
1 74
223 693
573 698
393 736
450 499
430 709
824 700
237 537
534 719
367 106
561 227
837 630
343 237
254 536
458 809
195 458
233 771
289 17
398 365
630 818
495 328
432 519
792 342
167 374
649 499
263 803
252 382
36 514
826 684
296 367
23 260
834 243
446 661
346 521
38 451
648 19
248 535
340 239
459 747
155 210
519 778
126 506
455 524
168 214
282 66
231 37
36 85
535 109
408 404
634 280
267 363
451 470
771 811
844 851
25 397
258 285
379 665
451 244
263 157
358 357
399 493
281 454
837 729
81 17
854 628
11 298
566 56
39 152
157 77
824 438
631 499
613 68
507 121
234 723
449 416
316 560
857 332
587 343
222 318
60 461
477 660
558 679
672 38
749 456
307 77
448 53
568 358
535 290
113 447
799 633
841 435
416 578
734 70
334 592
444 144
378 668
514 362
697 800
383 397
323 622
3 256
118 709
468 508
383 739
111 189
173 97
46 273
619 433
750 805
93 778
557 12
171 721
229 427
584 182
124 685
668 782
328 835
113 723
618 17
445 756
814 615
674 10
419 765
424 785
404 271
223 304
371 581
502 171
156 367
696 780
53 145
721 207
498 832
373 628
375 10
259 671
494 666
834 25
479 322
481 652
78 798
355 183
166 205
482 46
855 723
221 755
539 274
245 253
304 737
622 693
127 249
84 44
178 25
141 99
305 702
403 856
614 596
122 330
253 548
235 217
596 54
1 466
2 374
337 410
317 644
447 597
819 766
131 704
514 3
707 526
290 210
538 828
133 632
171 317
428 164
46 527
855 271
784 404
430 22
703 683
246 770
814 528
485 166
627 69
699 848
9 260
727 166
604 851
702 480
171 104
307 600
199 414
824 221
199 303
185 293
579 149
462 827
412 20
844 55
288 153
630 403
43 737
855 518
701 380
294 818
288 359
164 85
766 698
804 714
539 111
499 602
247 532
305 821
1 540
473 591
681 402
496 728
525 225
311 232
174 160
370 759
353 771
637 531
305 96
580 469
573 584
281 376
1 73
258 600
315 681
104 708
346 257
44 402
699 783
148 127
573 810
76 489
473 51
705 616
393 82
859 227
454 709
825 55
467 826
32 365
534 776
630 733
777 5
801 159
584 537
556 615
302 526
557 826
265 330
284 162
530 326
161 681
36 515
387 187
498 618
373 846
667 272
653 377
225 326
201 823
383 27
810 411
126 507
335 85
103 25
785 344
715 667
150 202
433 70
325 432
206 333
617 554
2 774
654 757
89 789
607 703
465 326
33 538
719 823
291 773
615 326
360 473
161 152
203 517
730 830
142 672
299 795
114 43
702 440
481 788
215 811
825 83
420 657
703 86
220 818
739 770
282 705
161 708
329 682
448 360
312 711
723 743
619 598
614 847
795 163
37 44
679 621
335 267
230 727
291 849
623 816
844 515
369 741
357 720
257 419
321 602
842 44
291 830
37 270
520 808
353 105
672 739
177 187
624 236
718 618
790 183
447 560
549 308
371 234
505 624
159 29
37 753
576 365
370 481
188 722
798 271
366 781
24 462
480 656
263 273
358 657
472 736
417 18
242 9
751 120
403 80
380 270
422 495
321 216
375 5
643 663
730 167
91 611
316 836
574 223
558 704
316 827
8 252
178 820
216 127
491 455
398 785
75 132
545 476
583 636
53 709
299 845
178 489
107 21
115 574
794 30
758 839
852 264
713 70
689 221
107 704
571 209
480 350
196 10
769 246
667 830
736 15
292 549
816 183
101 179
858 542
38 684
738 836
171 333
119 563
345 626
702 534
850 797
617 62
502 552
803 657
417 62
109 283
238 193
739 636
584 367
40 717
189 500
13 550
812 534
725 275
75 66
344 97
479 381
386 594
843 214
463 190
714 216
33 517
614 448
653 188
515 167
349 453
443 128
447 584
323 694
534 112
79 157
210 28
516 682
150 504
832 719
561 7
370 297
777 767
491 277
707 779
270 446
273 618
8 745
30 286
696 854
825 54
328 634
186 632
94 508
4 780
646 343
651 559
820 110
271 310
691 763
146 188
162 40
829 345
688 647
673 309
622 784
372 492
17 58
516 187
52 482
800 414
785 206
320 10
735 727
335 197
799 330
581 142
435 768
413 116
603 635
286 181
399 638
510 343
794 360
337 131
107 537
73 665
42 616
485 108
403 194
846 175
449 747
8 562
519 140
389 487
218 75
181 69
740 244
116 686
744 143
137 487
267 612
424 597
464 342
631 275
133 132
302 517
859 492
660 747
844 120
739 146
511 774
411 745
421 688
136 406
464 515
193 219
231 391
514 727
607 56
743 552
9 761
416 725
767 311
93 324
754 702
496 658
813 587
279 211
502 408
268 64
329 118
704 6
278 41
451 551
316 284
206 319
680 190
699 394
375 73
235 426
376 772
603 583
436 550
387 814
29 721
12 385
710 552
492 781
704 625
445 641
580 204
817 310
410 708
842 707
280 232
586 716
24 237
43 59
61 563
51 581
198 756
527 493
636 56
854 483
223 208
27 365
648 207
811 365
631 100
687 694
464 592
728 300
122 7
140 490
213 172
86 426
40 814
648 45
317 222
799 718
486 767
36 826
516 236
98 495
196 544
468 205
39 774
407 802
398 675
603 788
126 131
499 271
172 351
839 765
573 433
799 147
641 273
144 343
789 137
79 297
392 721
690 766
309 308
646 669
573 659
558 313
758 265
312 503
777 595
816 7
195 66
471 497
842 743
132 561
484 108
197 641
751 46
294 485
702 486
765 350
518 20
778 417
7 529
566 256
660 845
632 636
544 750
707 362
138 595
506 361
759 390
344 499
74 676
95 14
242 494
578 116
796 35
530 243
35 686
715 181
329 498
786 394
139 642
8 153
541 273
250 84
765 74
245 223
506 233
340 69
666 757
169 315
526 409
50 110
839 818
643 223
577 327
306 343
382 186
645 646
705 443
330 416
407 548
376 94
803 227
689 248
375 757
168 569
728 529
505 777
702 672
24 7
498 450
524 492
543 400
780 582
160 583
494 110
25 611

999 5664
358 553
329 961
103 750
376 760
53 166
753 457
243 584
601 606
985 319
307 807
506 613
55 873
574 811
523 539
484 757
692 434
570 594
367 664
786 218
972 241
187 939
994 281
52 823
211 79
648 22
464 951
970 353
936 273
667 387
580 992
801 729
141 88
818 54
429 861
595 338
961 908
840 442
577 589
955 72
488 995
430 522
382 259
521 803
486 301
272 642
826 41
355 627
773 511
422 743
858 233
976 148
741 156
503 121
711 564
436 54
994 616
811 98
794 860
782 353
436 165
562 823
321 99
549 523
915 433
75 444
688 725
40 932
675 842
437 991
247 219
959 638
416 726
602 454
38 381
494 787
170 589
64 216
819 88
412 514
554 983
888 629
163 248
819 457
115 548
296 906
444 258
652 223
179 983
799 297
733 53
491 950
582 336
278 776
615 49
67 743
968 452
15 847
296 338
2 838
764 732
81 848
181 277
257 301
280 122
445 640
263 275
917 242
918 533
641 240
688 181
925 184
764 128
410 999
105 261
252 108
898 880
406 887
722 396
621 241
601 613
968 532
808 841
42 385
722 543
82 894
125 572
898 914
316 983
632 720
640 709
470 360
661 689
247 894
5 334
833 69
122 4
878 695
203 333
84 184
265 610
198 192
771 336
4 281
771 57
478 483
390 897
690 187
946 17
175 449
126 305
527 653
922 73
845 639
810 770
371 200
486 139
880 578
205 369
650 718
564 904
314 219
782 853
964 113
907 467
34 93
845 131
251 874
656 608
768 42
163 560
629 686
466 675
358 925
622 24
367 859
812 935
536 609
423 663
198 157
40 779
305 729
70 987
738 81
829 134
649 992
317 850
326 128
230 364
490 393
432 258
892 968
699 324
261 865
357 857
267 33
110 515
775 905
963 377
767 651
127 560
168 713
711 924
825 745
111 12
190 405
573 920
613 219
445 569
119 390
160 951
94 704
275 486
928 460
276 900
977 785
246 702
910 383
711 369
878 418
221 997
281 227
265 335
123 399
791 686
65 10
412 281
478 14
14 145
4 322
596 292
524 521
652 470
448 92
13 12
732 676
415 648
915 454
727 995
331 518
335 86
211 92
715 668
980 264
541 937
874 134
774 525
367 436
617 841
949 906
436 755
194 957
842 685
337 931
233 850
234 573
171 717
775 288
341 924
950 270
261 59
216 554
190 98
160 177
753 214
363 491
511 691
818 541
184 277
60 440
762 846
217 211
553 361
210 636
71 361
274 653
188 75
230 714
875 259
753 739
390 839
546 964
502 414
14 618
752 237
279 322
619 151
268 209
415 386
711 827
962 935
267 395
974 774
498 3
314 85
962 841
951 131
251 611
177 324
252 246
893 1
932 579
426 316
262 974
609 571
439 738
501 777
82 605
48 725
674 121
953 54
772 542
450 72
747 994
240 444
493 38
462 803
954 571
191 432
213 72
568 185
553 683
246 384
655 406
9 650
909 295
550 91
670 704
904 776
174 942
952 532
149 628
778 435
714 50
273 440
939 911
945 334
775 646
335 191
775 791
139 241
747 356
106 100
141 547
469 950
922 99
295 498
119 750
139 78
1 97
647 238
105 53
618 509
926 50
363 998
356 362
265 150
707 693
377 823
962 128
229 911
158 389
64 694
415 851
739 863
544 351
946 543
630 407
563 474
346 726
661 950
5 562
562 689
74 23
153 845
425 720
245 511
728 983
16 51
607 417
2 924
831 723
893 886
478 792
599 708
301 769
802 806
145 797
339 717
684 454
390 57
310 864
617 910
319 242
147 325
985 611
4 745
575 146
501 705
780 678
358 958
768 166
595 673
355 900
262 688
545 436
655 187
512 187
869 659
300 442
570 592
661 647
977 562
925 306
820 24
397 377
670 638
109 832
580 994
943 48
397 172
737 729
481 27
914 489
112 345
809 197
171 812
541 646
546 784
934 639
728 802
396 330
37 584
884 941
499 457
266 938
272 343
233 166
529 625
870 42
289 869
162 493
211 520
360 334
287 679
534 748
104 947
592 664
9 320
195 434
834 876
582 954
778 359
159 812
994 729
507 858
346 724
184 167
592 228
316 956
468 871
709 319
622 674
734 440
313 848
903 693
526 420
967 306
201 983
334 597
926 889
595 767
598 613
1 457
799 299
395 209
89 964
105 399
567 140
24 308
101 266
817 73
600 615
853 891
140 762
333 231
764 589
343 434
495 988
954 21
612 617
376 997
587 861
719 644
64 834
48 327
349 465
333 346
449 357
690 797
547 589
363 680
553 537
492 355
455 510
442 939
736 923
697 651
701 339
5 332
155 115
701 196
830 824
161 951
753 829
918 335
47 423
486 845
300 138
307 330
127 117
365 704
615 736
652 366
421 591
232 870
563 859
68 283
681 740
556 496
598 867
559 517
183 235
318 598
121 608
276 430
15 579
972 550
55 322
327 578
55 755
800 526
510 735
95 695
688 339
48 754
696 702
694 857
364 596
132 338
401 375
664 267
702 199
545 24
801 246
976 380
631 212
778 654
52 943
878 375
887 511
230 806
123 338
43 629
118 43
229 57
259 36
190 631
934 886
24 769
188 12
649 998
264 392
226 298
212 233
365 821
222 593
188 961
448 574
766 402
320 449
419 239
521 955
24 765
600 432
763 972
335 944
376 831
219 8
519 23
176 325
158 181
994 865
320 864
449 700
622 361
220 517
336 10
587 579
186 516
455 553
910 381
513 661
734 897
612 101
926 243
821 223
43 691
948 214
139 769
356 537
454 270
221 645
75 832
4 467
602 915
990 276
866 798
415 57
370 532
456 53
167 537
867 777
228 537
175 846
515 421
993 867
977 294
780 775
96 362
780 918
125 209
107 938
788 505
402 588
641 233
224 637
133 861
599 958
301 663
627 350
890 564
651 766
963 800
621 324
937 413
99 422
929 865
548 989
761 690
320 312
658 496
493 755
123 282
92 971
312 699
60 297
482 247
389 601
619 986
251 446
753 737
919 78
536 918
191 931
106 989
966 111
879 826
170 874
905 789
395 33
270 911
524 194
793 231
67 329
564 806
146 907
815 983
299 56
997 33
927 970
362 616
971 586
116 543
551 223
77 852
501 696
69 964
627 314
186 572
388 144
55 850
632 723
118 290
302 549
163 804
486 518
60 495
282 593
174 611
891 991
79 546
355 266
455 287
921 687
652 521
16 299
714 862
753 828
576 966
494 818
799 603
348 871
139 388
128 691
736 472
116 362
667 874
767 53
842 220
408 466
961 762
955 4
577 522
115 396
103 258
824 841
770 435
276 312
144 183
328 903
755 992
252 840
64 897
272 702
128 29
427 107
203 960
205 178
760 727
778 474
494 176
80 36
780 492
432 737
644 438
530 461
327 385
40 577
251 171
108 368
579 953
213 219
144 958
9 676
799 793
818 916
37 368
352 270
758 154
373 168
429 134
527 637
681 293
404 964
905 813
747 36
909 781
680 235
828 419
426 815
897 894
862 646
784 200
572 815
300 42
410 614
971 935
845 834
662 395
8 944
634 818
660 152
543 301
677 891
423 227
553 950
419 776
99 316
488 357
472 874
359 967
820 107
161 306
678 889
576 671
632 779
866 698
113 170
478 98
437 967
596 432
248 542
585 673
238 653
611 149
494 891
406 489
624 670
783 549
84 98
767 495
634 432
658 992
883 595
59 149
520 897
116 418
837 142
654 588
178 317
783 872
55 193
794 83
210 106
144 260
205 268
104 520
690 307
138 640
750 899
241 657
827 118
612 992
888 136
33 653
93 705
878 726
695 292
751 588
556 110
307 760
384 895
986 430
99 715
794 809
213 351
952 481
401 429
111 368
800 789
602 97
177 874
269 791
209 537
104 369
360 923
414 760
476 773
919 389
122 51
415 954
143 331
977 685
616 379
875 486
753 902
536 604
79 766
429 923
356 653
620 434
161 937
623 713
476 474
368 243
726 706
344 892
861 809
684 806
599 775
244 989
139 411
835 966
207 120
46 62
909 196
328 319
291 181
609 146
701 866
752 987
124 520
609 124
352 131
206 34
861 116
585 507
306 716
880 681
679 732
391 965
37 989
21 440
16 584
827 368
142 535
767 650
389 454
203 773
369 29
356 365
982 41
198 632
554 480
125 681
274 443
43 762
696 224
435 116
290 817
424 483
316 817
812 846
9 655
611 92
188 507
545 958
97 823
550 312
442 493
792 960
942 438
732 542
788 177
884 705
554 745
617 603
567 893
254 187
590 817
832 761
598 976
358 341
253 97
915 738
382 351
944 114
266 66
129 218
629 631
67 114
929 371
12 202
521 601
746 324
324 754
788 33
739 533
811 128
397 543
424 899
870 214
363 547
539 651
886 614
678 850
471 560
468 810
833 180
155 416
514 745
382 739
346 573
921 793
840 967
681 249
259 47
524 609
299 798
16 264
4 505
35 389
398 529
311 368
600 229
452 826
44 476
771 995
840 387
468 460
306 291
383 723
336 930
427 637
300 773
453 289
189 212
222 742
684 306
279 843
216 901
609 646
497 940
707 241
46 925
732 324
751 216
261 178
855 14
501 718
814 513
712 375
17 615
152 874
902 852
82 947
431 356
442 733
207 781
32 467
801 257
696 41
778 911
52 707
829 339
568 483
934 225
715 37
296 117
518 960
338 496
178 73
862 39
41 199
64 96
377 223
692 610
841 360
975 253
947 340
550 723
903 385
575 868
870 892
942 89
883 451
832 771
232 719
621 877
806 769
183 322
334 218
300 414
671 185
949 775
920 51
498 483
46 953
531 603
767 657
185 27
494 254
152 379
190 151
262 768
342 50
756 580
761 854
298 60
561 626
679 38
630 560
501 452
247 224
307 183
755 343
916 603
611 325
359 45
869 517
274 487
443 661
670 744
31 523
370 965
739 340
5 920
218 973
664 698
58 649
358 76
822 735
550 590
64 665
741 328
600 648
482 822
673 36
521 397
314 405
800 596
946 789
74 936
75 462
318 215
873 924
420 515
725 376
5 312
961 402
853 164
449 166
553 312
958 353
670 693
182 815
496 470
728 161
395 562
731 982
861 923
164 381
112 134
184 531
397 241
829 238
478 484
10 726
374 693
254 335
883 669
701 788
174 140
269 648
671 829
163 106
680 128
283 138
370 602
707 617
367 379
222 666
475 42
37 879
479 738
719 756
209 11
87 926
375 930
747 535
272 719
682 602
591 430
519 189
831 383
86 802
569 324
592 311
358 918
869 490
356 723
859 268
80 324
209 608
730 130
420 950
619 646
268 706
624 784
161 630
787 806
290 850
757 540
316 214
985 225
933 65
518 997
31 562
109 634
866 23
870 631
642 356
808 132
773 586
79 983
5 976
856 144
732 995
74 245
633 98
406 156
819 693
718 421
314 823
775 742
20 23
456 28
186 945
546 605
795 440
358 487
876 608
813 81
608 236
834 610
716 578
186 289
786 528
722 446
459 568
47 966
557 673
856 530
907 958
622 57
574 956
670 467
599 475
468 847
46 854
435 62
991 29
79 631
246 460
416 849
145 117
301 432
499 992
873 823
856 479
468 45
730 440
269 12
58 801
80 733
729 192
925 612
396 145
235 123
577 436
136 686
50 12
348 809
274 580
794 191
103 17
607 385
791 222
136 908
358 161
340 692
6 525
137 882
516 742
349 339
447 762
534 390
771 560
612 994
285 380
358 274
675 44
401 871
828 534
557 176
206 998
548 437
567 507
146 565
932 955
122 974
560 506
446 147
437 500
677 750
91 881
55 986
373 615
431 379
677 639
380 337
855 992
23 657
346 720
365 148
132 75
266 836
504 712
156 81
825 422
813 785
84 307
967 8
625 241
40 825
792 712
758 439
869 998
216 26
212 890
482 869
65 267
731 890
322 781
795 913
32 666
456 374
585 159
571 348
310 480
388 422
814 944
463 258
174 148
968 352
205 327
798 484
763 905
254 895
279 882
58 189
556 76
485 282
224 540
975 987
962 262
599 95
15 446
829 982
366 874
688 314
476 965
302 552
731 666
536 924
518 732
817 981
290 847
406 693
640 822
701 192
28 366
731 809
993 258
959 745
836 735
58 571
883 16
98 699
215 464
883 442
921 153
79 129
154 872
179 727
304 577
46 677
339 413
840 214
314 229
404 425
474 495
426 394
973 72
920 108
902 76
622 337
287 520
350 628
513 796
228 487
363 648
308 63
406 900
84 908
962 12
802 425
715 221
717 903
459 923
540 896
833 138
587 487
825 478
60 381
771 381
887 281
619 935
736 665
878 964
602 522
197 470
415 291
880 216
532 817
540 324
626 219
736 487
64 292
840 389
804 32
244 53
997 593
374 944
727 537
767 776
741 685
524 133
283 785
607 864
42 636
519 386
43 461
760 937
832 630
172 239
671 199
555 438
831 269
871 572
128 508
765 394
786 529
143 188
886 678
668 621
808 888
995 490
760 613
302 646
94 484
363 517
612 240
482 397
198 465
942 560
602 719
268 743
201 732
623 577
436 413
269 11
53 660
549 393
88 249
666 720
687 58
966 7
22 175
153 812
870 995
789 391
740 807
814 42
727 735
31 196
779 270
780 221
819 513
309 595
167 533
171 606
7 492
486 341
215 265
343 308
720 693
929 479
2 671
337 20
687 895
506 901
570 74
647 253
642 606
370 39
677 796
90 102
596 940
635 910
865 901
481 924
262 657
47 997
892 134
506 313
471 517
484 656
731 689
186 774
78 776
431 88
127 489
633 620
630 336
5 723
40 826
113 292
518 531
443 663
356 648
914 292
442 613
861 937
417 929
752 76
719 440
601 281
715 289
790 221
361 685
2 63
274 824
671 859
675 284
590 681
172 258
980 409
358 477
55 87
135 31
604 871
789 238
516 874
612 903
515 836
530 910
569 588
409 334
688 761
845 152
976 841
741 455
256 361
828 793
48 715
933 419
929 144
915 101
221 950
481 108
49 894
412 296
855 628
190 717
781 111
788 250
582 864
965 730
598 440
231 129
74 76
349 214
671 537
54 565
734 187
607 331
448 941
46 89
880 923
316 282
102 144
144 304
77 462
280 784
428 120
220 506
340 656
379 603
333 134
25 877
729 917
76 616
96 278
257 172
391 699
655 542
323 1
972 690
320 777
315 82
953 235
256 373
581 531
893 257
623 104
152 693
194 48
747 964
178 528
887 212
237 511
682 156
424 676
367 652
692 85
250 686
692 196
56 286
312 631
652 553
583 3
217 446
965 847
206 205
144 239
858 731
295 840
577 351
800 506
110 953
182 474
135 816
961 553
839 584
232 726
175 704
452 987
201 349
224 42
794 490
690 267
789 181
103 435
271 679
291 317
516 802
318 710
104 718
312 411
936 693
186 444
168 863
687 781
177 535
307 736
354 669
968 885
919 814
756 764
485 418
531 241
275 92
959 142
575 126
967 768
204 236
373 675
763 103
913 332
290 773
482 125
576 945
795 209
834 377
446 531
711 29
57 720
611 153
648 493
408 850
568 708
614 699
105 195
217 822
214 495
206 441
476 479
140 31
309 944
611 964
942 92
657 284
107 357
451 336
500 639
335 994
231 653
163 181
880 641
2 749
784 327
569 567
197 926
347 33
784 470
588 676
42 736
638 826
307 764
869 78
15 469
109 474
716 326
972 984
77 828
802 379
203 234
962 117
599 264
359 999
15 235
808 627
860 852
863 407
959 896
914 3
679 257
830 183
942 589
198 834
292 258
373 985
58 963
934 800
682 281
80 699
302 206
876 87
87 920
568 530
691 920
791 30
728 998
975 210
486 20
149 940
44 310
46 655
569 994
759 851
478 986
203 765
977 406
171 347
544 799
29 857
600 651
124 345
234 393
261 358
209 189
67 43
915 793
321 166
595 513
691 894
109 301
401 508
39 6
479 847
270 238
716 362
38 890
575 33
962 38
912 799
428 797
971 141
520 291
204 820
27 277
428 940
269 368
95 162
406 331
973 433
60 202
302 574
966 162
417 844
514 20
945 502
85 81
533 743
296 765
162 730
837 467
112 724
250 846
607 782
15 585
823 806
185 886
718 8
77 128
647 116
104 866
52 450
419 565
232 198
251 866
750 264
309 78
52 224
623 107
898 812
891 291
476 939
648 950
761 787
891 144
48 982
450 982
765 552
899 916
207 587
971 6
810 136
340 223
761 312
891 589
58 733
330 326
737 114
686 181
802 974
167 704
177 308
396 530
96 324
295 237
225 657
546 173
802 3
472 674
647 489
83 319
734 873
557 508
48 660
512 3
342 42
497 19
816 649
105 598
878 228
355 26
602 57
721 413
446 310
964 823
235 705
886 864
155 384
31 765
75 233
956 854
562 765
305 620
213 875
558 992
126 486
878 849
810 529
49 321
567 899
918 107
633 3
504 73
23 930
816 444
488 605
126 83
25 10
270 989
652 128
985 821
54 62
771 578
349 626
929 334
158 8
751 139
569 272
841 539
695 336
574 515
671 475
711 670
933 736
659 368
664 474
207 892
562 861
123 69
603 223
886 930
463 663
155 334
697 461
213 444
269 506
90 297
661 676
184 248
503 263
30 941
198 307
957 190
687 789
929 581
312 577
888 928
269 45
550 390
295 545
939 765
524 549
503 730
469 614
697 963
671 551
230 349
210 809
68 415
680 25
286 509
9 825
328 179
880 960
993 167
392 848
206 39
717 606
132 834
283 109
868 619
650 674
474 278
55 375
920 228
389 303
102 822
627 117
868 841
199 846
565 823
786 708
203 986
538 625
808 931
56 200
155 524
657 706
640 432
492 459
683 114
995 292
9 71
247 83
604 528
697 434
222 375
770 559
564 134
32 31
216 300
660 657
892 542
151 798
322 424
880 322
454 181
386 653
244 745
887 385
299 920
545 960
985 137
832 276
230 543
313 885
482 772
959 746
182 589
936 97
247 693
359 95
790 255
922 47
373 335
274 794
205 518
614 418
665 240
600 475
89 858
275 537
665 97
405 166
64 616
936 588
851 315
127 175
75 960
547 931
622 485
318 266
251 869
125 772
423 245
232 86
660 992
510 849
320 553
319 821
282 669
412 104
26 742
378 181
237 398
574 23
4 192
425 941
909 323
195 823
126 745
184 580
645 345
723 537
853 422
286 889
532 845
24 776
832 239
763 409
53 863
460 938
226 293
652 265
509 434
978 347
68 471
378 587
842 250
537 281
991 812
810 663
756 58
684 303
927 197
897 18
555 538
441 142
175 913
309 399
846 94
650 461
982 889
232 148
363 954
624 325
42 669
719 581
431 525
789 887
73 806
919 665
741 255
803 916
403 258
568 138
740 392
526 775
303 138
668 44
981 19
991 430
246 115
467 243
875 286
3 117
359 22
16 504
951 754
279 305
687 180
966 405
719 970
641 693
638 380
805 635
275 992
44 227
68 233
160 671
93 731
975 685
600 689
426 321
485 618
752 967
964 336
821 489
346 11
147 214
169 626
215 831
218 368
423 995
541 28
427 484
764 459
485 678
921 954
174 771
406 562
359 630
189 19
585 758
322 500
52 797
202 142
402 444
840 772
933 5
230 707
993 363
746 310
288 665
491 130
192 293
340 357
465 764
747 226
234 51
457 784
884 566
235 423
695 96
703 597
79 463
708 509
719 799
889 704
858 433
107 911
646 974
759 627
906 107
288 587
699 944
976 219
255 769
73 877
185 427
263 696
322 20
53 228
592 922
262 624
178 631
397 727
621 529
972 77
26 243
829 692
536 992
62 172
13 792
431 121
290 843
184 314
296 276
79 555
836 557
734 412
239 806
740 565
870 588
710 165
363 10
247 692
947 354
35 380
560 653
148 564
40 341
140 944
269 532
477 337
35 43
335 932
180 923
793 196
25 882
851 314
837 644
328 876
55 715
955 473
544 940
871 613
532 69
446 175
637 168
273 523
207 823
811 487
526 953
372 863
967 793
398 44
844 36
517 218
339 596
715 209
635 6
728 356
458 221
723 683
268 334
105 948
592 450
283 395
835 870
585 543
184 564
867 345
527 981
841 374
633 101
139 310
322 992
344 600
586 889
637 663
728 621
139 994
79 278
64 629
104 674
401 894
3 754
449 618
492 735
189 729
873 172
12 674
347 277
190 253
545 817
413 386
753 343
254 740
312 107
95 800
9 13
302 650
782 400
493 997
522 885
778 731
622 962
289 510
735 98
776 71
994 440
834 197
448 392
804 573
217 253
951 958
915 380
546 438
195 786
273 249
450 589
921 616
482 858
653 865
305 755
538 483
956 950
903 729
904 713
429 850
362 375
714 224
914 478
952 725
607 383
106 131
982 864
988 229
609 248
385 411
667 984
407 605
736 229
556 432
873 332
471 255
708 410
733 889
370 321
427 906
55 642
385 434
423 94
869 250
295 114
48 340
79 769
73 999
280 313
828 881
816 841
566 165
698 357
261 33
160 860
237 162
958 130
265 439
105 560
18 169
327 433
980 89
55 838
658 345
878 855
479 411
355 137
730 327
307 42
36 596
352 897
670 579
819 135
416 882
934 212
921 731
575 706
264 294
619 978
574 651
832 185
13 38
608 407
122 312
35 323
154 127
597 713
675 691
644 638
190 85
291 11
634 689
379 706
415 170
996 595
390 476
339 388
280 982
922 397
485 35
837 286
315 748
100 334
137 732
868 843
64 859
105 353
927 946
224 529
280 355
392 381
375 250
266 282
765 334
74 835
366 491
602 221
53 227
835 305
790 855
352 847
468 797
855 899
17 323
824 45
575 256
40 907
467 619
829 6
62 399
853 384
891 821
13 249
60 180
622 566
878 924
95 466
188 208
960 121
376 368
396 37
128 651
417 675
606 885
55 145
206 359
957 757
561 308
373 510
31 152
956 730
254 83
145 525
607 597
163 225
695 71
236 872
831 391
157 372
909 677
837 351
119 518
824 542
769 483
475 974
688 253
284 744
722 468
426 169
191 107
803 621
919 887
208 993
341 203
893 398
411 821
782 292
167 464
960 618
545 128
126 781
951 804
42 138
303 97
847 554
147 717
576 937
9 684
293 236
602 612
623 782
79 812
118 962
187 327
178 446
678 499
979 80
432 317
654 632
692 683
40 306
157 645
205 697
158 881
536 484
370 459
654 773
110 505
119 629
971 812
993 568
635 667
375 924
581 721
289 945
996 216
357 258
336 3
85 392
569 475
674 806
363 619
574 983
868 240
468 742
342 779
473 72
550 191
271 426
905 292
801 395
576 949
446 535
514 631
752 214
996 66
978 904
445 325
731 788
165 838
538 480
135 899
706 605
533 540
866 783
444 481
926 549
898 26
420 330
560 549
533 879
954 148
262 191
923 659
859 785
453 544
862 900
849 347
633 444
45 342
959 379
525 989
450 345
343 134
971 601
831 189
906 196
683 506
332 228
863 765
518 456
612 435
647 748
271 232
437 656
459 120
721 365
725 365
144 720
570 634
520 267
186 771
66 813
40 912
496 82
518 645
523 785
526 144
808 405
886 242
109 939
718 811
705 172
526 434
486 863
841 444
934 951
187 286
494 910
980 81
287 299
86 246
205 543
399 643
770 53
455 775
160 425
357 134
680 457
662 361
996 547
392 689
831 499
848 377
730 885
632 399
480 908
601 210
555 147
938 297
320 704
470 410
401 385
96 843
43 980
541 77
859 342
74 546
494 511
669 937
891 121
708 593
431 394
454 793
991 83
44 940
133 397
302 268
359 741
360 669
476 519
465 843
465 786
348 713
295 978
404 698
187 314
247 694
844 932
205 946
390 812
603 867
162 615
903 454
55 1
478 664
64 764
708 317
140 769
254 163
521 607
29 535
607 778
868 522
650 325
328 799
135 284
452 416
42 676
668 656
733 578
205 169
215 880
147 16
423 839
925 1
569 47
808 785
778 293
526 959
161 301
881 94
563 438
670 510
14 66
913 873
194 350
782 71
4 195
883 947
934 797
187 632
630 140
247 628
786 284
411 978
173 470
47 333
463 61
785 365
783 750
329 57
257 820
844 968
697 34
429 14
420 343
119 929
45 62
207 865
968 303
129 483
44 250
984 537
215 355
167 764
374 616
448 726
552 716
906 975
45 369
310 895
538 658
668 837
396 876
4 589
662 85
290 346
481 793
103 882
406 971
299 281
962 251
835 379
15 109
66 87
13 636
215 634
892 350
528 304
217 82
763 235
271 474
187 535
445 467
835 695
984 155
862 156
675 955
396 136
790 344
88 366
469 575
715 648
112 419
491 598
755 645
348 245
333 958
595 44
107 646
637 656
680 494
958 757
617 821
893 896
548 301
394 223
452 361
416 822
864 889
780 543
105 139
453 833
276 846
247 293
90 96
494 134
595 729
355 860
262 760
191 162
485 449
199 343
881 260
129 597
561 618
178 590
786 785
471 515
147 953
985 407
440 938
198 311
956 647
912 613
919 354
245 233
283 452
799 617
66 639
952 516
662 691
818 85
514 378
328 473
681 475
560 740
615 838
139 483
828 397
233 910
513 419
75 674
317 737
273 381
724 940
780 846
323 781
718 134
756 125
595 185
797 525
634 913
211 576
195 199
875 601
731 166
7 914
305 365
947 653
530 479
610 593
441 970
655 117
273 991
113 152
792 525
778 608
468 910
647 774
709 941
804 631
198 162
143 551
451 599
190 582
139 720
571 693
40 171
594 750
334 525
919 100
64 416
102 424
844 933
793 653
84 786
831 850
136 843
451 414
234 18
426 704
408 331
617 723
50 896
737 218
922 380
637 353
24 621
45 268
722 176
176 340
910 931
234 470
497 776
427 101
251 889
52 382
439 730
208 84
46 872
143 71
96 872
816 625
359 981
160 245
895 743
905 189
943 349
213 112
17 301
201 600
829 326
91 717
334 847
649 817
79 697
154 352
113 199
715 385
830 573
637 961
452 803
749 563
328 273
993 800
689 776
893 552
841 85
602 389
918 51
23 917
524 94
932 459
693 738
465 475
880 746
974 100
73 639
55 699
465 133
530 867
346 128
972 716
864 973
976 166
651 894
265 15
854 347
717 241
316 590
255 939
772 361
612 104
208 862
518 268
42 221
373 685
448 284
536 987
991 5
259 340
892 462
773 867
421 345
226 227
13 63
287 416
2 304
502 399
140 134
373 146
600 202
239 108
325 31
827 821
153 166
468 489
634 664
893 701
452 37
272 323
435 785
497 660
158 851
309 717
758 696
380 822
695 137
312 462
99 902
837 712
196 192
536 349
323 223
56 817
552 854
307 992
132 285
273 610
48 516
129 709
204 191
468 772
895 703
750 150
843 976
551 483
972 180
921 958
998 992
494 707
350 565
296 203
451 873
268 273
245 153
641 971
201 940
808 68
594 557
577 281
266 528
362 249
404 902
7 299
880 965
174 347
607 643
816 300
870 115
728 552
399 419
571 50
3 702
775 964
711 970
984 833
569 597
73 678
954 904
663 992
63 698
794 76
55 897
133 55
730 917
445 854
433 822
435 727
228 297
948 226
994 352
190 869
907 847
507 995
753 975
436 429
131 345
985 140
658 90
914 240
75 180
406 431
667 246
417 823
570 547
991 529
463 456
254 455
475 406
279 490
140 940
15 768
624 407
898 192
296 626
426 705
600 416
569 919
272 395
537 433
280 902
957 837
154 961
2 606
29 823
432 815
826 243
59 512
143 160
764 186
939 94
497 506
962 4
302 733
782 299
455 65
338 849
230 835
556 515
961 117
730 314
238 525
169 10
44 914
703 461
190 656
339 694
86 449
753 836
274 695
972 418
524 539
528 606
18 781
370 947
442 548
723 890
995 737
836 571
728 932
679 779
260 683
555 994
300 255
716 596
233 292
552 400
319 434
680 500
759 864
401 882
275 681
367 23
216 911
819 888
336 472
642 626
206 685
265 189
80 108
747 776
346 931
464 346
56 116
30 552
969 796
881 120
570 724
265 237
424 278
99 148
248 698
88 779
807 694
382 916
183 605
579 700
527 900
805 34
734 88
257 628
718 748
741 821
84 996
897 693
185 651
870 874
11 771
658 614
662 102
585 123
426 665
200 38
185 982
957 796
505 754
704 613
747 569
15 655
447 546
940 192
465 224
538 615
298 768
86 867
21 764
480 850
856 985
570 807
100 889
677 503
351 72
815 345
263 902
624 849
537 894
278 364
658 134
753 780
260 958
652 488
635 288
563 63
140 212
79 993
67 809
286 709
468 296
753 622
832 91
120 861
762 276
163 239
140 905
349 285
760 156
158 829
14 769
295 508
956 410
504 329
42 941
746 181
784 410
426 415
22 534
163 948
384 935
786 574
176 392
877 656
592 768
864 613
889 164
356 129
30 326
290 755
521 149
886 529
759 285
290 610
694 539
739 190
853 170
45 347
126 759
144 876
295 975
211 196
641 933
714 213
607 290
115 608
830 519
286 545
635 559
550 646
787 720
296 853
171 867
413 674
269 702
918 21
819 720
518 255
486 186
804 235
552 324
103 391
951 245
388 661
881 902
457 738
747 513
894 368
881 535
224 625
925 252
584 418
254 583
77 923
122 516
176 436
825 41
163 654
863 673
688 479
161 433
910 285
829 723
446 285
592 153
701 281
957 143
652 707
213 239
655 504
808 449
761 487
26 910
468 19
886 57
320 26
268 474
162 821
74 25
839 947
211 23
666 487
575 885
444 473
982 857
990 636
352 120
862 626
708 284
150 393
764 539
485 22
750 610
271 687
283 572
536 323
868 696
141 940
825 875
856 847
878 224
624 726
583 629
513 887
351 433
389 148
821 177
612 106
551 505
256 742
956 527
167 496
457 306
344 479
878 284
683 862
668 42
796 23
585 732
143 744
883 995
630 380
843 229
256 947
925 983
175 168
749 755
792 916
444 159
763 443
710 230
308 894
936 63
461 636
845 726
249 787
474 616
438 199
405 6
338 43
376 138
179 745
453 266
903 152
957 795
29 732
802 860
559 936
37 958
725 821
717 433
294 450
512 119
716 236
574 661
721 71
61 574
706 164
688 487
954 566
155 327
583 895
933 860
939 327
958 481
832 400
173 744
550 46
844 335
61 83
355 362
753 771
631 806
544 226
36 902
40 65
102 387
174 12
788 776
571 392
296 890
499 661
802 700
325 497
611 178
205 539
979 12
46 437
671 979
124 540
968 234
880 598
955 100
831 537
444 743
927 10
106 386
168 737
851 292
935 700
466 909
601 872
848 381
722 346
870 290
301 605
3 108
54 319
471 706
261 134
501 769
527 357
159 865
86 110
863 499
526 193
810 156
153 695
942 625
47 87
592 476
397 149
350 399
575 626
844 928
805 249
662 850
441 805
723 864
311 145
896 645
20 517
274 789
957 752
261 823
819 723
606 777
349 352
426 719
978 400
172 479
245 703
998 87
840 192
708 479
985 886
267 787
620 643
548 352
242 889
855 393
43 249
464 82
521 470
74 864
80 17
708 546
949 312
208 772
711 274
967 164
256 650
169 255
80 462
818 724
449 159
80 321
198 370
515 588
832 472
977 737
252 955
830 966
240 994
370 945
95 428
842 3
36 990
331 522
887 561
505 371
552 116
734 156
404 969
500 50
373 300
447 634
193 847
358 3
840 365
751 409
665 70
595 133
637 258
234 279
359 646
208 390
392 589
546 306
105 2
949 823
176 371
927 992
968 239
578 626
25 626
445 585
34 992
816 818
968 973
53 181
786 809
644 415
42 73
397 281
367 683
649 112
622 951
41 384
286 973
855 676
568 350
536 764
689 766
744 639
880 254
22 165
382 84
207 24
177 29
417 622
183 3
230 26
547 292
624 465
219 983
135 45
124 616
659 847
441 322
99 826
107 523
825 676
552 684
293 838
354 852
261 504
176 128
159 473
287 660
346 240
955 406
711 769
17 797
713 584
825 902
129 911
266 352
734 845
20 343
152 327
731 493
313 308
652 983
797 26
858 24
967 846
419 928
844 505
259 437
667 336
654 78
32 233
624 851
627 872
17 20
828 22
93 289
294 760
541 601
9 632
17 165
330 164
576 35
25 291
827 850
318 986
870 231
759 302
439 782
428 29
759 810
150 438
722 200
542 871
803 281
594 398
296 723
725 968
485 271
752 794
15 274
723 76
759 761
462 529
536 90
151 707
394 416
518 425
80 197
622 13
734 587
829 717
242 361
855 921
469 206
414 705
933 895
352 820
651 277
688 881
753 162
144 991
681 136
409 461
892 608
607 300
581 385
987 854
895 97
701 808
211 36
93 88
595 394
10 572
140 943
435 733
774 554
907 151
620 990
471 204
788 754
611 741
595 232
242 743
7 191
194 578
949 978
516 967
157 255
786 544
34 989
431 742
893 279
716 304
795 643
708 924
251 91
986 141
641 57
422 137
753 942
133 202
373 725
943 345
126 823
970 409
429 564
248 528
140 440
468 29
127 312
900 386
633 675
635 381
818 823
321 757
676 425
247 736
314 729
44 578
502 470
832 901
749 960
555 999
511 413
518 240
272 347
182 242
832 675
67 686
237 738
680 503
93 862
422 956
25 166
832 722
101 371
614 51
872 686
819 893
819 445
592 541
77 91
849 19
697 167
424 989
677 766
191 282
805 157
802 365
967 869
345 238
346 849
165 443
664 374
869 643
416 911
143 468
61 875
194 268
892 347
109 159
302 478
144 904
622 807
148 960
972 370
4 172
782 983
913 100
363 173
524 570
852 159
877 444
788 960
412 959
553 175
996 104
581 345
909 210
163 496
615 942
463 397
992 231
651 500
84 709
20 796
556 318
580 180
998 239
86 533
50 727
270 220
870 437
234 411
737 480
851 616
907 266
755 196
114 196
301 117
830 740
25 589
834 717
363 815
369 402
962 169
85 438
358 805
147 956
848 223
423 923
138 537
178 986
643 572
916 616
167 406
578 27
248 874
601 170
263 899
382 725
882 645
387 139
283 42
322 460
28 286
415 718
329 154
555 687
940 573
989 8
936 172
809 418
370 728
918 255
845 986
927 244
56 661
789 243
46 516
374 50
367 72
919 498
970 496
894 347
612 744
388 978
355 641
724 766
347 293
649 797
271 52
328 598
927 169
329 792
511 608
43 970
213 502
878 504
455 89
826 543
612 44
762 657
119 624
764 487
123 489
189 222
853 183
835 596
984 169
623 642
592 478
79 672
136 530
112 145
562 111
412 790
89 903
809 414
665 255
599 578
396 657
818 438
604 107
880 707
612 942
333 187
287 410
287 734
290 110
348 472
431 899
547 938
592 705
111 107
169 656
561 890
440 413
871 754
622 204
694 809
398 282
881 374
481 864
677 682
329 820
915 29
498 913
434 489
291 705
751 767
740 364
619 629
544 78
576 991
869 802
619 915
109 621
629 342
671 742
374 738
758 543
634 286
254 487
789 472
993 117
546 767
714 313
914 807
275 338
791 431
45 73
747 307
185 958
64 589
176 23
158 907
825 654
466 960
820 663
125 221
932 549
980 809
802 25
566 38
739 686
190 282
234 582
302 803
531 811
589 33
649 404
356 324
673 14
547 565
401 220
844 64
891 39
921 854
207 561
50 332
857 100
112 29
459 768
299 987
448 63
145 497
936 260
934 819
499 924
948 619
217 487
318 927
149 699
23 214
652 294
75 559
831 768
1 365
46 271
174 320
488 583
555 851
244 396
366 923
244 307
724 628
630 295
586 708
147 368
833 657
501 771
601 749
929 166
132 395
488 289
569 504
792 281
557 760
264 97
104 352
431 511
422 214
795 872
144 614
507 986
881 233
49 991
341 351
1 796
455 299
635 439
528 523
191 765
767 338
329 264
908 894
660 41
829 220
458 74
126 155
770 157
32 886
687 448
784 97
349 281
746 927
304 134
179 710
1 250
555 703
710 653
399 430
718 136
428 174
9 433
814 526
717 449
954 917
538 724
382 782
824 505
474 62
111 199
167 113
246 554
945 591
532 25
868 81
998 724
877 797
881 474
366 354
502 866
838 904
354 156
174 627
386 643
136 422
100 639
329 347
633 645
9 521
127 151
145 330
60 35
832 12
434 872
254 377
370 874
61 455
335 24
283 622
947 410
828 431
634 267
520 727
675 437
384 202
544 698
93 745
722 27
103 528
875 571
915 608
147 458
849 164
522 258
422 354
86 717
571 460
662 100
158 360
696 847
309 196
77 872
986 24
881 454
388 67
147 902
886 625
213 393
107 278
643 742
627 663
544 353
139 788
839 107
571 777
115 771
296 249
49 999
620 346
530 110
198 128
145 20
314 628
887 669
953 923
888 704
466 490
749 557
922 9
64 305
828 435
461 694
694 292
770 500
827 13
223 908
954 248
375 379
957 868
210 299
176 231
929 447
31 299
876 884
146 963
272 650
774 193
617 13
747 894
734 852
320 656
786 917
100 243
436 221
809 605
795 542
333 627
548 938
574 183
61 822
363 385
203 472
723 737
856 318
400 292
373 969
615 564
125 227
92 534
644 877
903 720
840 752
913 900
301 399
305 980
219 522
789 394
934 328
774 726
791 236
407 743
984 734
268 175
714 459
185 767
315 396
598 841
442 121
831 737
34 351
341 571
883 238
167 665
78 12
650 693
79 509
707 956
296 25
536 419
615 509
57 497
369 263
973 924
156 483
47 340
967 549
369 400
756 548
158 416
697 50
96 679
211 887
310 670
612 10
445 46
633 639
631 28
440 83
179 111
184 407
147 525
60 314
688 807
527 886
16 304
571 686
59 356
588 727
166 517
369 655
780 257
888 268
880 797
187 391
650 789
387 329
45 861
211 13
52 160
24 616
743 27
512 636
180 794
520 651
335 970
665 3
405 248
410 721
660 241
807 322
204 277
985 568
986 483
824 506
767 698
702 511
367 921
575 196
346 868
242 277
155 694
808 690
194 80
568 221
604 747
772 303
226 865
179 429
531 286
770 570
26 474
32 871
255 429
754 636
701 67
670 838
362 293
516 360
839 970
206 509
61 454
790 101
745 542
709 418
631 73
555 781
921 107
475 138
332 529
119 763
145 806
647 219
952 821
453 736
792 676
542 838
323 12
363 971
671 503
582 726
74 797
367 844
670 181
232 65
408 706
109 261
146 273
536 185
403 386
833 457
48 962
147 520
161 662
515 547
91 597
194 342
317 156
921 666
245 170
675 903
767 277
36 843
248 497
805 153
701 7
875 77
790 150
477 233
652 147
230 483
81 593
723 94
124 977
966 326
183 168
262 313
271 517
733 250
392 738
724 995
842 594
880 737
604 248
932 551
641 245
544 851
101 82
655 577
87 3
654 878
20 200
994 783
405 643
372 714
95 710
747 782
897 326
206 593
125 543
881 481
85 241
178 565
126 967
804 976
492 36
249 361
122 217
652 627
356 666
291 989
753 794
408 863
45 598
426 950
587 159
946 114
926 899
733 395
791 239
799 288
139 221
215 430
179 748
257 10
370 405
615 137
497 33
300 511
86 552
951 443
644 577
642 929
555 384
65 668
263 427
336 940
426 199
688 190
765 416
521 274
151 699
265 44
547 578
919 694
913 505
492 362
682 182
298 191
751 704
482 419
409 990
895 565
990 795
94 236
922 650
778 854
784 679
477 926
135 568
502 371
528 299
529 6
295 775
288 771
254 61
145 543
281 239
283 905
215 434
664 936
135 13
231 676
309 298
561 113
141 781
439 380
168 885
977 385
393 848
803 285
733 964
440 277
574 600
741 457
864 908
186 744
464 506
789 692
722 633
225 951
137 53
85 343
750 91
363 554
575 421
905 282
526 202
217 146
1 973
596 394
355 316
283 11
530 8
770 571
202 196
758 482
359 365
2 320
714 223
821 729
944 584
31 876
748 498
844 989
918 444
166 689
61 453
174 156
201 194
461 656
996 633
217 638
831 393
888 209
742 220
582 565
474 510
76 414
37 992
96 292
189 857
814 552
284 738
446 858
18 434
493 212
846 872
722 458
560 433
726 258
727 63
355 924
859 284
366 380
649 462
27 430
75 410
494 416
687 755
682 17
499 871
682 416
451 921
714 864
1 715
623 784
810 415
211 230
831 987
122 279
451 695
886 477
942 483
211 87
304 403
420 448
532 951
439 63
560 676
382 63
353 811
906 515
282 281
68 362
604 292
428 82
141 627
310 42
244 474
816 235
432 228
34 168
690 543
55 691
768 108
287 588
780 707
245 742
380 238
565 173
759 451
941 882
356 470
599 378
288 94
252 647
887 63
624 733
307 1
714 930
607 66
62 589
120 729
504 888
633 925
559 397
598 621
573 402
999 472
6 908
409 886
836 843
505 989
552 258
145 860
297 937
103 453
918 928
162 104
845 229
832 562
280 227
246 850
466 709
328 940
599 56
551 181
826 404
761 869
463 757
82 900
963 789
503 244
470 487
592 57
705 894
86 183
679 166
502 39
105 863
875 404
810 162
140 493
269 207
52 737
182 848
972 402
477 876
443 676
951 516
510 519
398 559
169 357
580 833
453 37
550 669
311 56
652 84
662 5
77 475
64 746
562 169
969 185
300 77
980 543
545 519
413 874
125 416
632 76
906 829
997 69
517 645
332 973
342 735
99 938
779 150
252 148
660 243
290 296
280 366
247 256
711 625
530 581
15 63
644 461
256 390
489 890
454 900
420 572
777 117
925 341
690 168
167 438
921 787
740 731
930 815
273 240
494 854
478 187
670 821
316 33
335 455
952 553
526 263
515 18
183 928
957 665
580 564
641 600
550 520
429 433
875 897
733 99
609 430
920 303
650 760
784 366
163 891
880 711
86 593
747 617
15 607
389 374
617 901
45 404
716 591
557 377
747 663
626 860
627 461
90 395
38 769
290 558
205 756
469 124
489 854
65 135
543 894
195 516
252 723
127 449
807 821
263 967
716 241
661 848
759 141
556 444
772 178
187 626
779 854
28 322
670 785
883 810
828 249
390 964
211 233
305 860
171 823
123 930
839 936
314 964
391 200
488 623
866 616
46 358
65 35
901 924
290 31
418 72
742 249
907 404
945 857
275 286
498 493
587 777
909 583
439 640
133 853
959 473
90 146
722 431
659 354
697 27
700 846
704 989
599 132
967 864
352 598
203 255
709 923
778 719
137 221
344 311
569 194
464 624
907 830
553 726
660 606
221 608
959 994
985 163
198 336
883 82
51 78
437 837
921 628
926 473
719 436
512 317
504 889
633 924
201 890
174 106
300 836
528 495
609 244
383 737
59 23
945 10
965 199
969 156
788 704
515 264
183 142
612 780
158 856
180 944
439 849
333 238
724 513
690 689
431 865
426 419
927 829
569 689
918 528
600 813
507 293
205 150
617 238
599 74
587 967
215 861
543 643
13 692
251 937
488 293
697 55
237 150
315 969
257 908
392 171
265 268
624 619
307 137
697 273
381 776
136 285
17 14
201 889
682 264
888 541
283 335
856 59
957 259
970 926
575 805
671 698
758 832
269 739
206 134
465 376
819 691
305 288
237 677
150 584
408 23
984 842
275 745
24 39
94 848
850 798
501 739
426 72
450 82
930 360
961 326
213 497
532 379
118 310
356 495
468 801
971 186
726 928
105 826
398 895
721 424
285 727
902 903
739 388
31 584
491 63
202 393
535 473
409 241
804 945
585 840
287 240
273 418
818 337
34 416
2 898
559 666
824 861
112 707
390 436
211 761
7 181
690 633
381 170
564 645
506 973
712 144
971 653
919 933
81 71
533 511
621 726
803 537
994 584
397 669
616 121
800 864
982 88
192 656
875 413
22 596
914 186
981 242
251 704
58 795
919 188
10 902
302 166
786 275
93 355
311 300
675 537
362 260
934 811
585 868
733 420
681 281
64 309
979 973
663 383
647 171
79 485
945 975
488 782
628 66
646 865
423 472
441 9
376 673
590 220
634 88
481 903
977 907
967 129
26 639
118 233
985 162
515 657
209 860
691 496
856 156
437 836
615 625
679 704
115 691
723 944
282 54
527 572
396 18
514 365
280 523
801 963
790 177
585 145
625 656
546 540
893 691
315 497
580 291
853 881
2 765
888 156
772 876
609 326
585 301
180 727
237 994
310 854
771 704
884 383
677 954
988 685
985 593
983 490
751 843
902 148
547 583
427 834
312 20
668 497
263 731
752 546
570 927
341 72
246 284
587 368
569 221
109 236
442 929
299 540
213 62
829 388
122 248
201 751
273 10
112 62
899 874
574 168
61 107
959 662
891 804
89 354
914 277
40 186
60 165
478 364
446 910
469 631
382 776
936 116
633 974
80 826
957 371
465 605
339 196
326 834
93 77
975 83
559 272
747 208
227 872
395 421
551 646
55 471
582 460
984 843
533 248
457 717
684 116
119 561
86 698
68 977
355 647
651 978
897 374
721 10
647 294
355 788
342 498
492 427
76 170
759 359
782 426
180 120
492 314
122 971
472 822
47 889
209 762
985 105
669 735
736 784
808 381
771 371
79 686
179 252
883 848
849 928
956 924
684 901
975 134
580 566
796 539
221 156
957 520
345 908
607 600
168 423
609 751
104 549
528 71
432 108
93 883
817 159
486 258
244 368
582 552
271 707
516 974
318 682
86 710
107 857
77 1
778 100
604 806
208 79
426 154
119 315
843 551
146 269
579 225
123 173
87 462
612 127
99 388
599 339
976 354
711 266
442 857
469 348
307 113
576 934
499 793
504 897
697 554
165 964
169 385
925 970
804 749
701 99
796 857
391 407
187 338
524 883
232 809
672 710
527 584
193 726
233 385
974 806
558 33
560 606
180 815
64 724
107 394
567 194
479 674
266 131
603 848
681 980
942 791
870 384
183 507
647 72
851 597
631 317
91 88
350 695
663 802
336 97
592 818
378 407
130 874
403 418
303 166
299 277
817 720
389 803
845 292
753 210
934 361
687 547
155 370
673 497
630 427
374 149
568 8
400 394
26 636
501 286
880 441
118 25
717 699
652 510
725 144
931 561
342 704
862 27
875 156
197 440
311 160
810 513
117 241
814 201
527 684
913 776
555 939
685 292
840 156
887 30
46 422
215 268
585 144
857 603
809 472
199 29
90 641
225 421
897 941
188 610
84 563
231 700
126 619
515 411
183 313
831 637
137 577
979 695
396 949
200 270
972 660
594 418
428 486
671 314
955 543
962 305
320 753
856 931
907 737
143 19
94 551
919 690
118 441
714 656
401 289
13 916
825 330
40 526
703 297
599 392
535 608
191 618
863 164
639 480
979 477
344 162
109 926
346 239
891 825
981 282
451 739
375 935
17 157
36 911
508 871
970 924
64 463
714 409
254 470
455 869
295 656
353 999
580 610
629 219
7 429
968 403
969 190
550 973
242 616
370 437
174 465
90 532
760 900
581 890
879 389
168 889
567 296
518 244
122 647
306 938
631 443
775 509
816 754
623 215
38 950
133 77
971 303
612 43
273 487
471 936
77 561
378 16
151 159
977 764
919 154
568 286
594 738
131 96
266 729
230 670
469 522
92 731
19 727
316 403
709 324
187 422
642 463
658 533
107 421
888 503
154 839
393 517
836 895
381 70
309 665
205 280
427 802
873 502
858 578
362 885
228 862
949 986
412 43
492 859
228 813
108 779
833 674
254 616
555 349
494 219
893 303
587 588
826 472
775 481
378 483
388 76
518 397
298 224
463 686
30 571
507 186
536 860
441 536
759 104
701 764
764 258
479 449
625 221
825 499
296 255
919 329
99 242
222 12
782 882
814 323
13 96
315 152
586 53
422 866
112 436
996 852
323 514
266 942
909 904
508 397
366 535
831 715
888 19
245 666
984 998
343 317
276 490
168 531
243 121
428 221
684 430
814 729
536 333
124 675
516 931
632 246
968 792
593 253
80 103
479 865
212 940
413 403
623 158
592 962
333 668
172 542
697 393
39 334
952 57
186 881
820 496
734 666
339 750
991 414
939 627
675 991
109 953
735 901
833 939
959 717
247 559
348 646
97 130
412 951
387 339
101 731
420 489
250 578
405 12
282 377
174 331
309 672
119 777
873 317
353 164
215 282
146 895
326 657
862 999
902 334
483 706
216 967
670 505
573 737
797 685
252 227
459 443
955 542
817 529
86 894
858 422
151 694
958 802
302 838
722 545
855 799
906 443
752 435
787 148
42 165
877 229
459 852
320 190
18 973
57 657
520 23
588 222
732 738
201 894
628 947
451 738
213 911
515 941
843 264
827 911
186 613
151 457
282 8
412 923
805 860
349 112
666 434
84 771
736 434
558 239
463 361
945 218
943 947
268 791
118 593
84 737
137 66
201 267
992 10
496 889
262 250
708 350
140 738
671 831
251 108
885 610
237 563
252 144
768 953
953 371
86 811
215 909
642 561
256 380
105 483
260 434
674 864
982 85
43 895
99 507
528 817
212 698
947 777
532 501
493 815
980 414
903 995
566 847
848 608
389 662
675 913
527 848
16 274
329 301
277 597
84 65
376 228
612 159
606 981
952 668
165 657
888 282
211 47
36 130
75 748
6 558
549 460
885 292
997 698
533 824
515 325
2 816
556 367
323 980
452 240
898 502
468 812
661 796
112 932
295 251
298 685
10 121
395 657
162 172
328 668
882 351
25 924
638 864
596 896
730 970
272 978
591 731
80 11
216 362
518 285
544 376
601 889
79 543
818 861
156 788
31 664
805 417
100 745
766 974
409 289
136 679
636 666
554 901
741 773
10 743
578 989
452 784
830 697
641 297
112 172
923 535
690 310
28 945
641 346
153 352
160 644
585 421
604 71
146 939
953 457
955 279
621 917
17 815
272 784
919 970
503 648
104 991
217 736
536 108
804 871
775 452
924 605
227 249
18 196
921 941
762 721
925 281
201 615
133 422
765 843
230 581
562 905
329 276
476 477
458 112
231 357
435 416
204 675
580 874
213 603
382 866
473 646
150 100
814 207
585 773
343 525
400 999
520 952
975 120
157 713
339 154
455 784
900 931
188 909
500 911
475 200
333 234
768 815
718 39
45 327
660 473
977 40
119 332
376 704
161 20
237 769
128 347
912 919
591 659
482 347
412 50
129 720
687 705
365 383
477 581
369 836
596 525
759 83
282 597
853 154
32 116
669 760
580 936
709 588
726 890
896 999
844 721
258 236
520 231
739 509
351 995
925 944
487 227
844 544
683 738
961 964
727 937
175 454
957 368
453 439
452 872
163 407
182 401
755 843
158 670
624 408
519 643
921 144
72 170
488 817
242 614
349 642
41 721
690 766
620 515
237 673
897 56
201 411
664 989
408 27
592 591
475 69
833 811
656 720
911 440
544 511
829 799
964 278
456 244
627 500
355 269
696 170
367 934
359 854
455 195
57 865
385 938
929 789
198 498
420 904
22 588
763 48
624 794
531 182
722 951
248 766
328 782
235 776
2 427
37 227
629 377
945 241
800 371
31 965
527 960
966 32
948 555
961 928
504 181
131 38
605 130
827 136
59 226
624 388
101 500
67 700
672 778
103 298
552 304
914 843
864 98
28 989
949 951
914 986
557 82
206 896
67 474
855 301
395 339
988 882
96 314
224 751
815 899
919 988
452 407
346 190
111 114
43 242
47 730

949 5417
858 277
198 487
91 638
398 165
35 244
591 565
596 897
171 643
392 756
11 216
670 625
560 624
267 180
791 635
695 777
661 850
297 734
738 868
46 127
584 247
694 108
877 324
427 325
197 838
196 599
19 526
42 527
739 393
757 240
710 817
541 731
470 895
489 857
58 312
337 673
893 31
26 161
690 704
284 759
139 9
854 217
417 868
747 587
788 229
642 749
672 394
421 117
187 350
23 257
315 328
8 38
580 340
601 233
692 525
568 615
100 209
596 97
616 426
317 576
128 615
250 600
136 771
853 831
60 215
842 698
147 480
310 892
77 95
867 251
284 371
639 776
858 372
197 304
179 221
452 389
910 903
490 506
683 214
799 217
740 397
728 461
49 761
817 908
729 367
341 454
785 205
566 513
159 625
326 239
91 675
293 616
627 533
641 146
703 518
867 473
205 849
823 233
834 201
46 30
410 631
730 608
599 394
86 378
450 694
91 422
308 672
843 416
609 293
611 9
775 10
134 475
264 262
704 702
305 49
340 859
605 571
477 521
823 339
938 113
22 502
868 677
621 897
482 277
725 343
446 717
255 710
945 737
359 388
548 90
785 632
559 897
329 241
590 174
611 336
798 335
774 81
794 454
649 518
869 92
617 12
563 405
376 670
505 883
585 475
108 897
948 534
399 52
458 720
365 644
665 83
421 690
585 564
635 39
871 837
213 330
395 859
195 902
380 800
158 69
200 603
616 927
628 657
664 458
114 385
810 674
316 242
614 41
706 262
355 332
853 469
340 248
730 384
180 767
441 271
409 428
700 149
223 500
66 274
794 94
334 863
707 317
466 584
303 302
195 593
462 210
694 597
364 840
254 571
684 517
572 863
166 82
261 583
521 33
904 716
905 194
734 461
818 942
430 88
786 634
180 285
909 430
570 165
472 120
935 528
370 840
350 581
477 67
43 408
596 15
39 902
208 483
176 7
654 118
727 36
561 38
245 357
809 564
153 187
827 504
295 763
115 58
886 239
119 137
637 598
600 686
674 397
69 463
14 320
87 794
364 816
290 344
466 538
831 874
99 421
435 897
651 903
317 732
907 273
376 573
747 139
676 456
586 775
342 716
346 726
829 716
234 924
918 755
586 486
392 776
872 445
283 171
219 263
361 530
342 39
851 302
612 184
202 450
773 265
171 785
651 222
941 579
728 337
11 127
591 868
838 746
269 165
345 332
471 105
532 541
536 227
555 193
629 74
437 113
354 857
364 53
254 870
48 504
476 135
784 460
306 768
914 301
529 91
40 194
295 577
884 373
26 285
745 899
446 349
452 702
489 201
639 379
472 643
878 320
61 890
561 911
690 151
393 416
547 716
758 93
473 287
382 308
87 865
222 776
225 36
169 73
855 678
202 606
637 290
13 701
431 658
431 940
290 750
534 223
311 615
864 567
629 83
338 94
647 35
335 216
528 543
503 252
820 162
780 946
803 948
265 189
435 750
457 471
863 268
499 48
612 759
297 318
479 119
474 608
51 673
70 592
568 735
895 257
881 722
56 510
284 860
497 284
127 491
207 458
267 155
600 48
436 919
323 798
417 786
161 581
385 236
27 577
881 246
386 674
645 694
595 170
647 797
265 890
177 776
141 343
604 913
625 233
143 706
270 332
850 575
349 607
80 221
715 186
281 108
275 331
390 3
949 662
623 541
110 344
54 843
734 191
257 544
935 168
331 499
3 878
425 167
265 89
134 4
927 839
799 616
854 88
51 678
51 285
949 129
508 75
608 712
589 154
93 341
882 817
223 428
594 304
904 83
616 658
543 162
671 121
482 883
568 597
508 550
454 270
640 654
187 720
42 933
611 921
523 325
742 587
871 475
636 887
124 745
382 675
570 511
833 275
699 298
312 24
755 262
167 170
261 470
661 539
944 659
601 55
675 916
340 192
13 512
303 913
197 382
414 140
344 531
532 566
80 642
771 886
206 583
670 510
774 73
482 673
837 564
234 78
125 866
815 138
842 858
476 749
905 688
61 743
773 919
388 894
406 117
281 151
779 432
598 84
116 388
782 159
932 531
240 223
54 571
671 585
664 389
258 717
8 681
70 425
637 898
378 106
415 126
589 799
842 611
866 149
261 245
792 361
663 627
833 387
466 58
63 274
229 43
862 799
711 859
881 43
30 363
344 165
605 213
808 276
383 76
847 870
314 603
709 353
172 829
182 502
835 785
450 187
780 663
197 835
181 57
149 903
332 750
284 610
627 738
546 920
676 368
177 930
87 206
532 412
53 554
365 750
57 116
383 83
556 285
205 457
43 498
830 743
119 647
483 142
910 860
195 258
231 565
549 325
543 867
400 882
935 876
554 749
919 733
818 31
479 527
79 10
652 517
700 100
819 707
142 942
39 929
158 751
589 308
718 770
790 415
59 387
404 432
23 36
703 203
762 661
83 265
859 622
550 939
363 9
661 264
663 327
683 320
14 851
41 720
20 696
119 751
210 201
411 517
708 789
637 153
782 105
158 370
362 323
589 896
391 551
400 625
595 936
184 883
50 753
303 882
722 633
316 368
335 579
925 52
888 876
742 777
766 189
585 883
346 296
914 75
238 175
332 883
612 515
684 112
294 669
281 387
464 877
892 184
87 83
288 475
454 903
825 124
40 599
294 395
185 630
222 521
39 513
34 732
928 908
253 606
439 658
657 35
943 886
467 564
647 763
308 901
682 731
419 666
345 699
424 154
353 20
907 379
27 855
428 15
946 502
417 394
636 667
676 805
796 585
216 904
222 62
944 428
168 159
846 902
443 592
831 411
98 781
852 425
856 898
195 189
620 829
566 257
655 545
128 573
237 117
537 817
111 428
591 886
850 310
830 815
709 920
546 150
618 487
673 461
729 152
546 50
803 244
760 554
783 938
83 203
898 525
24 824
25 84
100 501
945 400
11 875
49 110
747 339
566 179
136 530
875 336
5 551
40 647
114 674
595 231
46 839
63 80
230 800
871 818
586 613
713 336
308 137
73 753
716 203
610 834
191 912
813 863
81 369
10 681
944 108
304 817
946 320
892 95
741 535
31 328
695 241
219 56
779 210
2 370
648 949
577 36
446 256
524 946
197 349
356 268
818 339
303 946
880 83
509 719
185 566
440 298
687 749
318 271
561 76
410 481
563 733
893 894
514 885
508 476
825 518
846 465
381 800
898 330
2 303
846 865
439 725
650 52
598 636
782 66
468 154
927 83
570 306
880 710
809 928
184 776
223 840
441 817
107 839
743 737
945 830
562 670
286 445
160 332
198 148
41 677
238 757
367 843
851 245
246 735
907 454
102 718
486 36
197 746
623 343
589 216
203 613
140 407
591 530
349 831
310 185
301 294
874 632
376 643
892 308
803 115
326 310
474 679
419 378
44 216
818 867
153 855
351 604
101 649
535 461
46 880
419 702
360 620
877 536
435 529
915 356
292 603
574 854
44 914
830 650
538 633
726 806
777 170
158 36
125 219
752 173
199 279
881 452
627 863
86 172
539 193
645 799
443 155
462 793
391 678
234 12
286 808
182 228
936 776
386 579
900 867
79 809
79 356
579 455
482 722
89 167
176 394
722 455
436 631
571 577
554 913
549 313
349 766
390 416
907 733
871 740
68 26
621 28
141 263
181 293
699 168
493 681
258 485
468 112
575 224
685 608
458 468
248 201
836 586
729 385
927 285
468 470
198 573
914 207
40 224
168 266
884 267
812 24
642 154
372 106
190 154
545 38
59 13
416 126
19 203
727 895
773 94
169 42
297 352
418 654
707 588
407 244
429 302
912 766
450 853
719 505
264 287
1 725
429 152
205 263
903 944
316 782
922 337
444 685
66 869
11 430
622 221
770 615
506 527
109 652
585 109
758 795
722 920
136 331
537 495
926 567
833 920
505 172
308 702
306 797
133 31
31 473
37 576
223 564
370 168
740 63
120 10
118 533
844 233
319 700
569 843
17 307
803 867
273 359
220 61
204 701
115 324
339 402
354 193
580 894
863 388
709 660
156 564
878 701
252 59
623 36
387 764
715 850
440 512
383 544
920 266
477 112
25 375
459 743
850 640
547 513
907 715
729 36
810 360
158 323
252 599
509 351
842 595
875 170
105 721
558 106
224 870
560 304
117 351
522 571
832 425
935 672
581 822
323 519
486 768
801 939
197 226
215 647
2 391
368 262
42 766
57 692
371 838
136 790
158 727
47 262
472 687
531 5
470 307
825 877
19 652
313 65
421 891
354 687
538 651
390 945
932 384
284 710
319 522
250 338
861 475
949 537
181 122
128 378
536 103
221 467
314 759
792 581
540 567
831 16
872 227
450 416
655 870
433 227
89 398
770 633
607 387
419 826
288 908
80 839
755 840
386 824
463 443
845 509
537 67
322 83
287 242
497 248
855 382
220 766
468 721
329 360
419 33
760 404
384 562
147 484
820 110
794 95
64 203
523 513
161 347
503 345
413 515
360 317
569 264
16 760
132 902
555 870
459 400
38 828
370 45
886 439
282 33
18 224
391 76
102 636
858 701
841 255
435 431
606 22
875 670
917 4
850 506
385 582
3 670
208 47
888 140
190 804
780 828
258 220
575 755
509 337
735 445
220 337
284 564
114 578
650 272
338 155
907 598
183 327
730 95
34 45
933 21
366 693
208 766
40 273
386 186
558 55
528 410
943 204
621 908
602 590
234 548
14 805
650 710
255 100
537 901
13 147
846 807
225 356
406 110
433 90
437 1
897 899
340 915
705 797
722 694
219 877
903 901
857 231
699 92
898 868
497 612
598 280
206 124
297 928
515 721
707 12
673 633
926 341
341 731
358 15
624 232
228 800
273 33
609 335
313 301
219 689
557 626
905 420
30 852
356 642
50 469
855 781
639 32
336 739
586 585
454 942
491 944
645 350
404 928
629 565
175 859
464 137
173 409
870 257
484 824
774 941
774 828
359 434
161 722
595 689
327 69
58 484
349 248
323 103
812 394
736 514
27 265
917 388
786 693
784 294
325 548
514 358
187 647
807 716
39 27
847 286
46 478
372 363
155 109
671 716
457 578
584 328
214 7
126 720
944 124
57 277
826 397
334 196
871 773
42 269
298 745
523 423
300 399
502 247
819 51
303 569
822 731
900 427
862 119
420 174
682 281
339 882
711 7
795 42
869 239
541 288
670 772
416 913
228 308
161 747
290 260
825 316
420 608
203 112
138 495
186 725
88 192
939 324
8 98
889 420
727 419
323 769
431 96
523 496
417 324
398 155
698 360
622 308
920 365
385 681
522 481
37 351
6 347
929 582
668 567
800 712
564 401
927 737
427 272
532 247
143 717
682 704
165 5
873 429
420 603
498 837
464 898
557 833
48 572
175 220
63 244
731 170
144 768
604 513
640 711
550 589
148 840
555 504
703 876
80 365
926 381
301 413
130 577
599 286
640 820
291 832
366 569
477 586
58 581
246 393
728 440
357 154
490 937
238 941
273 253
36 824
252 538
56 651
354 780
457 360
311 178
260 330
790 570
572 256
669 765
446 686
390 731
158 425
867 413
201 745
700 872
365 422
827 263
497 920
477 215
426 404
941 168
281 340
906 471
546 696
406 478
260 432
363 141
552 473
715 519
555 920
380 860
127 507
261 358
119 875
778 806
196 571
579 92
142 76
456 93
628 550
220 603
758 588
774 475
534 391
576 412
46 896
873 698
175 315
255 389
658 931
40 897
849 77
187 357
453 36
113 97
877 867
526 97
915 137
199 302
739 223
346 912
610 741
2 233
435 836
645 712
709 517
703 124
400 344
279 901
660 749
780 942
864 636
468 88
362 112
664 570
293 280
835 360
646 276
390 312
655 689
229 626
1 564
779 251
735 188
368 422
677 103
794 308
885 800
736 685
46 665
237 806
636 892
561 513
843 512
44 276
543 816
787 378
114 521
478 62
524 826
314 260
809 183
84 337
375 103
799 868
609 366
448 221
125 879
883 518
503 387
578 350
946 378
455 908
816 568
215 149
313 293
421 279
187 124
44 726
689 527
889 778
725 185
640 120
582 295
14 101
158 812
107 776
255 755
383 715
663 247
846 781
659 123
206 748
884 575
321 869
589 257
855 193
730 295
342 508
262 670
381 901
457 573
446 459
555 773
934 93
38 84
431 771
175 446
753 839
396 441
801 200
436 683
643 309
682 719
805 149
772 215
477 887
701 642
243 163
61 120
85 652
926 50
603 924
125 836
509 828
792 336
640 588
918 566
246 73
68 657
355 650
544 344
836 475
512 588
803 95
252 719
782 330
182 583
382 496
275 534
923 223
424 155
373 877
616 655
691 853
945 946
216 627
362 331
812 603
182 68
788 149
293 721
700 119
847 917
132 337
23 343
26 425
61 459
366 211
120 302
176 699
176 192
486 554
279 13
68 515
415 84
273 685
374 673
690 159
293 488
216 33
814 433
136 776
119 112
79 594
905 525
656 713
287 613
769 494
71 647
611 892
152 769
419 473
577 518
94 511
889 788
562 520
799 564
165 746
896 716
624 82
787 181
419 335
735 870
459 337
131 908
405 160
207 185
337 170
282 96
856 336
471 654
105 828
884 526
285 174
71 19
329 496
846 622
386 194
741 257
61 452
724 132
354 353
744 203
690 577
303 635
489 384
823 669
443 488
724 415
934 230
202 275
353 347
278 847
427 515
690 738
172 728
230 515
380 653
638 337
14 885
234 512
114 331
828 838
695 838
226 186
252 801
484 28
121 830
895 585
74 67
881 736
364 332
417 55
949 388
114 17
283 483
546 702
940 203
228 25
672 10
637 163
503 380
215 781
381 58
75 283
359 308
580 896
703 8
190 750
525 110
381 394
786 172
87 866
753 319
145 610
936 318
661 516
865 51
847 520
829 45
696 579
228 383
856 512
321 766
160 578
622 502
269 513
202 43
755 19
224 495
222 174
901 166
226 181
779 937
923 524
907 131
874 633
284 168
321 570
749 92
384 74
842 468
128 415
935 625
754 767
158 566
853 403
774 193
923 374
63 65
391 308
230 356
269 367
474 343
222 642
37 775
442 427
353 484
237 677
389 185
799 781
284 385
145 756
709 129
731 296
625 763
476 486
458 41
96 865
730 775
558 17
27 20
542 256
263 346
584 65
744 585
914 356
775 247
936 777
484 357
701 108
349 567
740 409
902 632
279 186
373 11
528 793
742 542
608 124
586 444
262 603
839 895
707 280
292 39
222 495
182 747
560 868
813 78
248 347
945 267
891 908
694 42
532 361
836 478
566 371
486 260
349 259
71 912
140 134
573 259
477 238
442 379
104 371
886 330
248 533
623 512
540 606
102 216
784 38
431 150
204 348
474 916
476 944
112 521
917 193
900 399
776 908
333 581
333 790
444 584
282 823
765 23
278 149
116 19
42 603
882 341
661 647
139 866
259 174
316 920
615 675
320 475
709 863
207 4
182 404
95 592
145 224
735 143
165 824
655 191
359 572
260 183
207 157
318 639
780 459
567 746
267 280
939 525
841 774
642 484
218 601
788 176
365 470
380 309
701 839
776 45
80 586
207 2
229 17
377 504
179 413
51 388
947 507
949 808
490 114
864 345
20 551
726 247
292 729
24 287
811 398
795 517
449 358
763 806
258 245
674 922
368 411
260 221
785 901
880 112
453 874
844 78
534 589
405 601
204 237
812 423
60 224
427 67
46 173
728 4
582 372
729 800
381 647
881 889
146 745
715 853
859 554
458 352
646 721
395 253
777 646
406 53
411 759
936 579
932 411
70 230
678 92
74 237
827 825
241 190
920 186
370 337
723 581
650 367
480 806
921 180
689 451
691 483
61 201
398 716
803 922
550 343
255 480
682 668
221 251
811 391
354 829
703 189
186 913
463 247
875 541
763 309
376 561
323 234
144 744
751 673
590 763
59 677
593 248
114 358
333 445
848 526
944 473
339 848
92 837
349 86
787 658
275 585
900 602
865 394
502 112
341 712
160 844
414 693
197 916
53 191
719 196
560 277
333 84
814 733
934 785
178 672
75 849
782 522
713 769
606 245
18 770
130 799
826 925
884 353
705 196
532 254
294 363
851 911
284 687
730 651
797 256
548 67
507 837
75 381
921 937
495 890
787 420
936 88
528 159
584 460
775 840
841 936
364 352
56 805
404 903
627 430
866 375
313 621
261 58
427 891
590 122
66 847
711 125
396 489
39 166
401 868
107 667
271 754
276 108
151 369
338 152
549 537
54 934
682 142
749 357
267 483
861 108
232 566
920 748
99 423
264 571
734 291
524 393
800 227
102 741
208 298
398 933
180 172
271 279
458 881
935 819
629 310
352 334
60 119
932 168
558 423
337 883
104 628
710 217
529 611
788 680
879 164
225 473
2 741
197 515
919 504
560 754
740 267
385 873
544 502
945 296
681 931
565 416
549 875
751 291
46 17
518 542
855 704
9 928
943 103
926 485
430 398
216 22
825 790
698 269
510 109
40 196
555 80
587 192
80 368
433 654
427 587
852 163
321 122
801 763
640 754
437 73
844 575
115 697
205 157
406 573
316 480
282 583
284 871
582 336
675 78
489 39
71 67
71 398
359 417
827 411
21 64
424 268
25 133
756 808
445 394
943 511
160 849
31 379
364 657
53 581
661 16
521 677
474 134
537 286
243 564
118 416
102 840
543 476
599 147
158 122
381 231
492 719
456 524
734 419
790 844
575 886
40 826
427 576
158 387
352 562
447 88
213 69
840 295
252 685
878 911
54 298
510 231
534 608
918 277
293 597
388 455
818 524
194 274
846 318
641 443
274 678
110 109
935 569
760 440
26 587
833 73
372 371
663 859
47 516
265 741
285 324
508 699
462 757
532 240
200 633
844 130
510 449
773 138
632 604
573 351
318 41
856 592
430 408
380 520
949 457
932 588
648 130
774 444
44 746
396 447
542 135
541 901
543 362
947 808
618 895
803 162
747 263
93 798
666 317
703 912
3 770
623 287
873 298
546 384
727 14
43 337
509 119
163 848
937 728
321 367
424 506
813 768
706 496
413 733
160 276
234 816
453 519
275 804
384 50
58 201
439 105
314 191
775 94
742 322
392 541
465 185
874 346
729 130
406 19
127 801
509 784
423 927
476 421
194 519
259 642
478 367
25 945
227 22
433 651
676 494
17 340
293 596
739 857
60 929
101 805
293 705
333 926
635 575
463 78
647 564
503 857
328 451
881 339
181 516
458 740
91 146
538 823
206 484
226 949
293 201
190 712
930 100
248 465
457 134
415 557
272 591
312 492
497 912
926 649
884 390
852 781
602 78
468 89
316 923
329 237
855 173
827 217
563 320
336 604
762 648
116 424
80 704
266 891
689 237
414 435
144 142
141 603
608 285
555 691
535 434
66 253
204 706
26 565
415 86
450 81
409 849
392 638
466 687
412 919
52 276
336 132
561 632
552 767
897 495
679 883
442 350
724 104
690 944
655 741
359 183
791 655
73 26
71 515
661 52
194 766
517 298
148 645
723 377
887 203
941 815
176 162
432 828
507 135
252 783
146 518
806 375
610 728
115 749
59 72
41 581
180 166
591 168
121 810
522 554
841 861
845 25
792 91
846 786
260 146
423 530
941 443
297 461
819 300
448 759
939 511
515 592
200 518
364 503
40 880
105 901
939 560
64 475
810 862
528 426
499 927
488 257
17 541
589 783
537 857
147 110
536 644
847 572
166 667
425 368
284 460
262 471
482 172
690 402
284 45
44 436
654 521
641 779
881 938
715 486
291 37
681 749
884 567
441 75
688 196
580 485
571 732
157 596
873 515
412 393
490 764
17 319
872 478
308 330
754 262
476 851
314 426
758 636
264 859
742 922
466 752
780 643
506 658
905 915
96 133
595 849
880 773
493 530
44 935
64 379
479 368
323 482
770 916
195 673
152 488
399 882
453 763
2 431
867 481
330 445
921 643
31 519
591 686
226 49
740 786
465 722
318 204
528 48
765 701
269 440
398 36
881 416
384 344
75 828
719 511
741 505
924 527
410 43
194 473
16 430
54 256
366 22
884 685
573 561
44 161
881 908
706 617
691 861
284 285
395 770
20 310
713 745
436 523
398 838
515 488
148 586
809 368
187 289
314 235
406 808
776 583
705 423
99 71
884 94
398 166
656 237
718 9
383 738
472 457
589 332
674 110
257 854
335 701
68 86
735 155
43 831
860 144
355 436
128 310
871 530
160 588
550 555
930 493
70 418
447 901
129 839
42 672
761 643
795 28
304 451
941 736
47 351
871 611
711 718
253 594
895 135
623 2
570 454
115 164
518 768
406 741
406 46
245 510
636 399
47 253
858 580
802 473
17 572
322 927
291 305
242 170
640 941
366 924
353 600
566 77
671 210
782 446
458 378
893 393
415 526
364 334
608 210
94 502
114 496
107 319
156 205
212 18
859 296
777 903
180 654
881 527
727 718
555 775
536 851
683 273
886 86
669 350
858 468
780 327
888 844
691 164
688 619
503 642
605 502
751 395
221 461
591 242
811 245
153 738
613 764
562 638
134 687
447 927
286 64
106 488
56 701
744 97
312 657
866 885
909 931
11 523
464 91
742 213
228 400
316 100
729 64
457 569
353 843
362 641
864 286
554 893
419 913
386 324
830 397
761 343
905 90
318 684
690 438
543 343
13 24
314 397
508 637
320 237
715 386
770 510
370 15
310 784
221 29
792 452
573 918
849 346
101 815
427 84
437 520
925 867
816 933
566 522
329 537
805 552
238 939
4 746
51 771
334 80
390 605
131 499
818 719
709 235
405 132
507 902
381 929
516 471
937 235
228 268
540 461
580 255
528 492
799 320
625 761
253 838
1 9
158 697
599 800
474 184
38 290
386 786
406 940
850 869
559 149
727 674
637 107
897 15
624 603
397 743
472 333
54 381
259 583
881 140
557 330
334 40
561 420
501 403
410 504
102 585
820 940
301 306
676 294
752 511
499 417
74 144
607 73
540 547
725 781
636 829
210 157
528 82
302 463
464 263
68 3
714 64
915 193
864 152
748 807
898 817
495 913
315 698
576 504
75 730
706 409
189 55
874 266
431 820
697 623
452 369
914 196
58 802
862 747
121 226
557 279
50 876
617 434
302 756
51 833
825 659
72 730
803 869
694 814
94 378
722 110
614 646
278 731
377 883
93 748
124 579
430 518
580 456
820 752
550 185
56 792
347 363
383 546
24 908
171 754
298 502
46 761
446 646
587 625
87 656
886 189
553 372
606 526
441 191
311 203
35 29
406 50
826 501
725 739
335 572
193 357
80 548
927 269
586 129
181 166
933 97
917 876
419 641
737 478
411 642
61 166
871 96
373 755
875 286
360 940
469 577
751 245
238 277
121 96
239 266
276 746
8 563
353 659
778 596
430 84
947 298
931 657
91 259
190 542
548 829
301 47
595 348
639 290
850 633
427 773
908 634
606 468
322 491
346 515
827 817
848 90
903 817
43 591
630 78
373 940
135 21
752 513
125 540
685 633
93 904
555 101
222 227
740 47
116 916
562 324
762 457
371 295
799 204
305 184
624 576
314 299
433 772
680 775
780 571
496 211
258 750
426 668
700 735
559 588
194 656
796 220
133 721
695 28
272 478
858 618
186 124
40 938
78 507
334 172
780 830
486 918
803 570
383 223
202 297
58 50
441 170
557 631
99 236
20 3
282 449
13 424
582 188
145 500
625 913
790 947
572 658
862 785
949 319
813 573
280 151
724 360
778 759
407 603
791 739
322 219
30 536
417 916
279 783
808 654
763 445
149 9
205 227
207 660
297 789
62 137
559 597
907 355
177 511
385 217
160 681
915 876
865 411
85 808
537 111
798 939
573 633
460 55
2 74
887 423
54 111
613 928
66 839
838 745
506 142
513 150
264 375
598 41
699 280
366 772
682 397
3 257
813 368
580 798
282 799
827 24
709 596
812 98
303 328
765 824
929 397
604 525
550 396
301 299
455 712
627 779
404 859
640 778
940 885
777 45
136 163
349 799
637 8
303 313
414 340
852 456
787 132
424 579
862 29
22 659
157 750
426 654
431 583
735 771
928 393
250 806
107 44
204 552
553 780
533 883
143 780
458 712
347 826
406 888
218 427
755 911
597 150
669 745
852 824
527 256
341 797
250 345
696 772
293 57
492 142
436 7
827 267
556 203
24 460
169 19
389 247
910 632
153 545
910 299
927 651
876 399
539 634
879 536
842 708
826 193
81 908
459 642
558 71
688 34
281 903
799 620
140 223
649 932
771 462
217 500
751 9
638 277
50 35
336 28
580 341
760 692
725 942
800 603
67 377
528 133
140 174
51 134
701 911
846 407
560 897
681 470
239 159
79 907
235 343
318 95
636 462
593 659
431 873
909 254
468 402
589 242
180 100
382 551
776 828
826 89
259 659
663 638
595 489
794 763
524 590
623 793
638 445
675 257
605 938
253 416
60 262
199 804
572 911
598 162
186 363
207 297
923 232
580 386
618 278
841 423
208 486
839 675
492 559
878 906
534 55
352 580
386 521
519 236
735 119
522 749
689 619
528 311
690 916
175 316
203 357
306 710
199 586
241 250
938 288
595 747
177 564
190 710
543 60
506 821
427 105
15 631
234 552
435 592
554 336
329 884
275 145
938 179
59 883
833 836
709 243
832 750
580 634
635 330
212 347
178 636
13 200
548 24
682 611
516 574
144 124
744 909
335 663
778 276
469 344
323 183
16 776
491 227
38 35
204 370
573 556
791 469
250 664
945 506
690 712
391 630
909 159
881 338
128 342
929 119
772 92
831 617
832 537
815 800
923 882
601 627
68 398
893 491
841 138
930 768
365 82
539 677
918 587
147 901
300 374
104 196
359 948
360 878
859 570
713 411
475 309
412 913
422 673
670 270
734 892
591 37
834 804
762 511
664 81
598 873
469 159
378 843
549 725
876 523
785 533
18 31
879 83
113 155
920 469
169 364
509 391
396 204
589 433
140 91
292 714
87 747
627 545
775 162
255 287
294 382
39 580
293 566
667 721
262 728
12 29
143 577
587 76
914 244
329 428
238 732
224 704
403 641
725 214
68 260
639 432
362 428
896 551
895 337
468 155
552 296
894 122
494 686
546 520
616 166
725 268
229 279
104 901
746 348
175 346
198 819
144 331
400 16
199 672
803 518
365 696
757 667
105 726
206 57
665 467
462 423
373 221
191 561
106 824
893 268
180 924
949 10
364 606
917 646
607 771
107 829
406 799
740 875
688 300
941 918
174 732
376 663
602 283
603 155
624 260
552 630
40 715
443 245
238 422
591 687
877 504
945 363
29 247
375 495
503 218
787 690
734 670
71 317
619 696
679 70
649 778
414 797
323 195
371 210
691 753
834 124
528 371
545 247
11 360
747 351
711 294
417 859
306 539
587 163
290 289
751 737
935 403
85 295
129 35
587 667
688 340
923 830
447 245
943 799
252 568
475 394
476 612
827 436
496 106
560 707
153 703
153 293
707 906
407 701
856 901
784 631
171 680
217 256
932 76
509 834
2 428
292 696
131 679
533 422
11 845
943 588
844 653
431 310
877 599
799 12
605 61
453 304
724 23
663 150
835 861
389 878
321 485
121 827
196 537
865 184
567 570
435 407
164 255
347 265
628 497
297 856
442 505
739 357
831 572
133 361
725 596
216 76
321 406
712 908
439 401
76 531
38 478
792 217
286 451
44 49
456 574
465 310
877 778
868 911
128 567
402 544
402 631
508 782
480 902
60 676
242 259
740 6
100 360
823 232
66 574
692 417
620 838
141 48
453 653
696 473
3 201
685 887
866 25
846 948
915 564
153 21
834 78
229 258
68 128
506 495
362 296
783 630
92 868
743 122
500 913
115 282
45 240
881 561
934 587
13 828
105 811
202 872
717 530
550 262
809 933
93 419
665 483
900 577
586 824
924 805
874 837
334 850
711 928
784 42
32 719
140 482
626 632
528 820
935 344
494 870
301 254
195 857
314 344
450 815
624 558
89 328
676 564
145 430
823 679
53 345
313 42
61 839
208 273
541 520
466 354
685 298
748 76
321 444
292 848
181 424
787 197
271 348
516 346
204 772
297 49
939 398
499 13
372 261
180 429
291 687
640 212
346 526
220 369
809 353
773 176
511 843
408 123
436 440
465 126
211 622
61 693
32 710
17 760
571 299
347 126
184 588
865 74
187 639
349 492
442 615
244 49
264 538
501 536
246 158
709 90
102 708
322 678
25 196
402 266
130 573
19 634
866 510
691 475
80 892
483 808
136 702
156 399
627 537
252 231
394 673
469 235
532 399
733 687
572 249
665 695
281 42
887 453
742 903
946 34
530 527
748 474
477 831
363 565
464 165
128 263
312 100
936 553
77 209
760 504
631 527
9 4
874 505
66 47
414 54
715 562
365 33
40 312
639 338
133 720
479 41
924 170
762 445
543 389
106 620
639 346
594 756
396 293
769 947
94 368
900 280
645 918
482 679
367 625
933 908
322 100
618 379
639 299
469 244
694 898
813 747
695 511
863 521
20 181
43 425
904 21
524 184
882 188
177 291
638 767
866 481
197 928
423 843
308 677
586 412
592 280
41 38
243 938
813 832
740 736
248 542
437 427
561 155
23 146
219 412
114 386
493 410
627 763
920 36
921 218
23 483
940 223
524 516
869 666
463 295
636 123
581 731
267 911
636 679
587 236
716 630
383 604
719 475
303 175
595 28
590 410
209 583
724 161
730 822
451 244
606 470
805 142
406 98
924 898
776 412
813 190
934 613
204 779
763 233
505 201
32 183
881 457
839 84
787 764
656 716
503 579
152 667
315 889
190 119
335 575
326 240
929 434
301 654
323 402
162 67
492 195
771 784
2 568
791 902
131 753
206 776
430 172
638 378
278 338
372 659
397 280
457 749
787 551
293 908
230 822
352 781
594 337
688 98
238 867
802 306
191 45
446 319
463 778
340 904
197 769
806 634
937 761
469 4
774 846
60 421
480 214
44 559
941 386
299 587
907 62
211 669
198 847
250 893
464 548
841 822
492 806
145 692
917 771
610 416
81 583
150 520
616 849
138 64
435 565
111 233
736 705
182 780
729 403
715 886
367 151
867 210
44 768
494 807
378 55
237 947
618 307
202 933
431 938
567 756
87 910
553 30
295 332
342 822
21 203
187 404
888 32
814 343
523 659
121 124
836 832
457 534
802 413
622 266
876 577
79 98
628 629
238 580
41 392
595 155
406 197
318 534
562 423
229 884
622 245
70 214
608 745
1 509
20 591
183 344
352 407
668 82
450 297
196 264
767 526
479 276
755 78
32 242
648 414
685 775
427 596
942 288
136 775
873 562
782 841
325 663
732 249
1 224
329 684
58 943
735 811
493 255
646 455
297 321
61 296
464 36
895 667
429 761
940 805
179 445
729 825
897 530
600 583
608 491
637 887
494 565
884 815
449 76
563 276
818 52
228 493
804 554
362 837
309 911
199 928
682 817
590 350
914 322
405 412
499 305
326 457
174 806
125 59
858 872
929 563
197 218
363 155
508 506
862 115
367 165
612 1
354 708
202 644
709 740
246 714
728 551
90 641
896 500
164 530
271 286
437 514
738 906
794 479
615 133
11 596
448 671
785 157
160 425
64 613
752 275
254 338
419 270
609 927
739 239
282 758
278 599
796 126
134 893
813 801
655 643
373 749
215 749
508 374
509 939
711 314
555 631
718 33
475 583
609 484
318 659
815 760
856 587
130 74
547 324
133 828
508 568
640 552
497 591
204 187
205 19
940 186
617 520
304 388
546 532
638 150
242 527
198 578
852 347
251 911
586 699
520 667
258 917
856 820
68 637
782 145
802 422
501 240
505 620
91 213
2 136
232 892
811 10
260 720
427 864
852 394
887 155
231 432
341 805
638 517
252 448
714 407
447 432
381 179
275 773
383 256
87 685
694 692
386 154
540 645
320 213
139 683
846 533
322 639
342 268
694 81
795 483
420 365
836 581
539 138
137 494
852 179
409 527
213 76
326 846
821 781
2 940
371 931
821 259
916 237
511 230
918 290
441 926
663 863
794 289
44 192
307 179
31 911
732 520
876 677
360 368
71 638
328 552
384 714
114 73
450 490
116 357
929 822
944 77
546 836
709 264
751 796
676 199
582 186
821 832
129 247
36 733
354 894
190 456
779 726
724 640
601 922
891 807
376 696
949 682
78 445
571 677
437 230
692 9
859 515
405 24
904 772
635 576
935 429
927 103
268 411
814 828
396 749
96 634
865 696
627 603
739 766
663 681
576 369
723 847
261 244
14 809
764 155
414 473
706 773
510 358
756 122
867 89
53 240
354 124
282 442
249 274
431 693
358 895
469 793
158 760
36 109
210 78
666 619
719 743
614 877
819 147
651 530
301 127
691 468
886 610
708 716
948 794
404 707
721 330
637 714
651 124
836 464
865 800
549 724
617 379
757 520
364 363
572 192
240 857
574 548
312 412
24 192
616 644
543 156
122 152
618 869
250 827
935 144
198 285
534 433
865 187
774 352
61 576
444 290
835 169
313 440
107 408
236 913
54 673
509 847
664 661
57 233
720 103
591 876
213 89
905 163
728 167
930 112
267 424
36 113
930 37
626 932
926 808
19 600
131 447
849 632
920 728
120 254
392 151
637 846
907 303
584 432
929 798
489 121
145 937
844 596
539 916
122 897
793 388
225 407
3 647
143 112
907 233
156 630
492 310
253 97
915 738
881 323
532 905
457 612
705 35
595 641
240 473
472 291
335 167
250 79
415 541
417 214
200 663
148 565
755 455
848 35
177 204
863 468
321 744
452 764
655 200
802 130
804 707
152 733
628 911
899 209
811 883
187 118
812 826
831 380
762 664
580 487
794 166
172 642
924 720
929 236
765 531
11 621
624 941
751 53
532 801
537 633
918 883
191 324
575 310
772 544
725 586
186 554
781 126
909 137
1 864
182 62
57 138
293 105
131 322
838 330
499 828
318 558
305 587
195 756
485 941
352 712
196 586
383 150
791 933
609 806
549 472
560 89
63 675
339 721
27 585
786 382
286 781
833 759
694 451
248 377
234 933
753 806
133 240
421 203
319 781
759 413
923 204
262 928
567 743
156 725
730 840
303 806
361 603
143 379
932 291
200 892
544 898
611 410
762 36
20 276
32 149
431 23
14 485
731 533
626 751
550 700
423 233
54 746
754 859
168 138
39 626
315 237
8 329
498 720
448 453
47 103
729 116
86 6
13 350
930 376
608 680
18 811
440 843
864 183
113 495
69 62
34 599
250 205
65 332
546 722
252 790
932 475
402 647
668 189
629 746
480 394
572 172
815 420
429 681
708 255
854 138
450 836
469 216
787 264
376 304
208 576
646 744
441 639
278 684
294 681
798 311
844 642
285 203
822 425
75 323
515 28
86 24
718 565
37 795
591 723
722 21
80 941
372 430
457 897
657 677
68 935
782 554
35 227
418 146
609 218
111 3
350 898
666 3
299 154
443 134
482 266
523 480
410 325
818 326
760 38
274 126
846 264
349 902
870 617
260 728
835 108
241 300
162 155
509 804
398 167
316 95
607 282
573 150
900 698
914 118
785 636
708 440
104 113
880 88
359 694
196 84
549 157
834 412
864 214
794 806
370 291
522 420
560 255
918 516
501 630
823 152
251 162
381 34
267 771
361 188
803 341
696 377
364 722
418 173
207 349
348 97
936 690
849 151
433 777
639 769
317 783
637 549
655 625
431 460
694 468
513 88
363 81
604 394
509 536
915 412
443 484
221 675
689 244
751 223
304 513
853 902
857 224
775 789
814 653
770 761
589 531
317 891
943 616
756 4
574 7
922 556
354 186
930 336
836 551
780 673
602 897
396 448
380 221
571 434
885 343
809 918
352 583
593 639
226 567
406 169
602 894
680 592
308 411
544 188
885 298
660 305
1 257
185 151
865 66
60 690
573 828
850 278
333 578
27 443
173 440
556 480
233 296
893 223
34 545
329 202
865 837
644 887
801 310
676 696
497 715
595 22
923 168
802 307
943 366
33 123
758 141
758 88
876 597
482 535
850 479
853 1
151 843
923 345
59 901
754 733
818 17
470 544
858 136
487 446
716 913
787 835
680 391
476 576
276 82
114 597
25 854
101 409
819 210
411 473
472 887
803 918
779 103
825 178
2 392
240 899
919 520
536 19
867 254
158 296
815 459
263 325
563 652
711 362
640 164
144 185
568 886
57 470
628 430
349 347
178 76
152 510
26 181
516 596
119 400
376 933
85 91
159 517
435 507
205 725
353 717
832 652
367 870
558 847
299 398
350 82
871 843
875 498
524 135
931 142
322 330
545 475
849 678
802 249
463 155
557 726
334 211
191 592
414 487
319 133
543 560
734 860
437 736
30 854
17 738
824 142
377 76
2 387
363 817
115 877
758 476
135 733
871 553
782 267
160 22
17 808
234 574
765 35
910 901
571 174
609 87
476 381
900 836
836 653
178 467
649 759
127 505
182 523
184 832
701 314
115 139
516 470
312 37
335 21
37 361
621 877
766 110
881 922
683 53
87 702
419 830
96 657
442 263
685 583
284 419
565 678
196 223
253 879
474 620
71 706
194 166
813 105
846 177
406 170
794 91
292 211
120 615
390 358
464 809
484 82
909 495
840 309
771 585
839 882
289 399
181 222
860 834
438 521
700 468
664 97
869 370
205 232
408 129
816 851
835 388
603 630
346 868
752 849
2 188
37 848
204 416
255 848
243 442
923 659
780 499
842 601
106 687
251 903
270 78
196 15
380 225
402 562
637 619
205 672
50 597
672 251
248 564
724 621
871 3
711 533
450 294
612 577
693 85
623 276
697 749
914 844
665 672
13 357
137 893
137 304
318 138
74 424
379 357
391 110
352 806
74 662
36 289
863 426
645 99
42 200
850 141
261 159
619 773
708 645
939 514
14 615
557 747
650 460
621 327
316 737
860 35
795 382
463 484
11 114
729 502
876 712
73 794
202 350
185 510
940 507
186 545
371 944
483 225
75 751
600 256
490 85
848 416
143 616
624 167
93 920
664 332
727 428
259 103
522 221
273 527
889 873
228 267
582 196
140 879
911 461
415 360
219 814
589 227
855 136
810 729
198 22
682 869
11 37
634 98
153 792
28 916
413 898
722 337
605 888
748 92
550 219
350 527
784 184
590 745
349 720
78 22
293 203
590 162
196 928
503 74
228 154
947 432
182 858
878 679
438 752
922 350
472 446
772 716
541 429
316 896
873 95
284 461
250 589
72 805
622 680
550 590
37 222
804 29
365 908
856 912
406 397
281 31
946 379
104 939
191 837
835 144
380 469
327 755
492 255
29 583
494 597
850 127
889 424
621 187
176 525
819 4
486 371
614 675
515 633
128 789
839 712
476 651
655 253
479 654
912 324
282 425
29 165
374 723
443 696
380 360
468 412
36 675
577 653
274 159
774 61
438 471
738 634
208 935
206 912
923 791
176 875
799 285
47 370
697 677
804 680
179 592
40 608
431 225
719 641
83 585
419 735
102 120
821 337
14 713
949 327
808 613
219 483
835 2
41 736
495 5
718 389
27 149
30 457
116 610
325 109
252 184
148 231
4 684
80 58
278 614
300 490
637 900
283 617
602 268
748 291
436 134
877 374
220 196
516 227
518 445
78 147
741 369
728 783
782 483
598 192
18 147
308 518
864 479
771 893
205 52
850 222
635 579
386 840
872 610
263 404
232 137
359 526
380 625
234 516
146 674
660 661
183 811
807 870
3 65
219 867
188 520
799 918
481 851
196 694
547 742
786 594
87 748
143 243
2 394
553 199
717 629
573 667
335 174
530 898
361 642
922 391
457 380
882 122
293 206
666 616
573 780
614 866
282 644
465 748
676 247
548 105
431 293
33 768
235 262
558 176
628 375
573 7
792 413
421 933
823 144
682 824
769 259
869 876
623 409
85 162
66 240
414 438
749 710
714 376
435 889
94 304
611 358
421 763
8 710
835 27
377 348
946 10
96 56
199 416
364 507
368 806
440 113
665 632
272 52
333 869
541 256
889 615
636 898
750 544
755 868
623 201
493 457
365 404
183 397
331 268
20 879
99 942
580 925
104 888
514 151
929 940
414 227
47 799
54 154
116 794
369 155
167 594
187 717
810 783
575 443
834 694
833 3
800 356
802 943
275 204
235 754
676 32
508 121
932 318
204 268
506 644
610 7
186 184
403 873
224 767
580 691
580 264
576 402
212 290
415 921
830 544
331 227
739 515
835 673
645 218
663 559
171 878
553 869
886 363
542 911
281 840
415 849
339 212
326 817
675 686
819 789
362 111
915 594
111 31
884 899
835 884
80 190
170 653
742 362
559 288
840 510
568 227
35 521
457 511
833 734
338 901
311 166
688 524
303 237
452 678
650 917
804 232
751 608
555 674
69 571
59 947
836 814
460 837
372 298
514 81
926 208
864 266
821 913
195 501
917 899
366 840
131 325
173 295
759 165
746 721
103 76
383 845
573 91
877 346
2 426
24 56
685 370
364 786
550 595
29 356
784 77
752 946
180 699
608 769
75 490
905 377
576 693
701 520
61 254
227 55
85 514
49 97
787 185
718 909
919 769
793 34
833 22
812 343
351 597
101 642
441 584
890 564
818 439
431 22
569 643
270 351
932 230
680 428
493 110
311 235
93 179
207 896
889 199
597 766
176 251
624 672
840 413
626 1
813 694
307 397
421 445
387 568
889 747
466 620
358 678
14 211
87 427
304 155
328 192
769 942
710 201
497 767
205 646
40 945
425 240
371 793
279 160
482 812
575 876
67 240
583 150
355 213
258 69
18 714
789 174
664 126
60 388
460 430
199 1
692 193
446 908
786 122
32 144
661 842
611 19
810 705
334 846
619 524
601 9
178 641
323 101
216 41
234 328
913 712
182 770
736 341
387 518
771 653
704 696
814 455
337 65
7 658
708 80
263 804
660 753
253 759
641 710
824 98
550 918
437 102
114 779
540 118
187 123
504 670
861 642
180 312
540 240
628 449
560 732
741 686
465 536
27 817
219 239
363 306
861 559
75 198
827 477
791 179
243 18
703 61
559 343
427 382
623 379
361 789
214 401
586 90
821 541
492 851
435 645
113 514
206 675
708 755
439 512
499 502
338 946
120 438
340 81
171 249
437 467
623 249
54 820
301 287
862 655
719 471
442 545
34 608
208 169
498 536
544 947
816 936
724 167
102 597
582 382
819 600
563 767
822 265
54 626
588 81
58 625
554 922
467 112
19 641
727 271
543 700
758 387
697 531
414 47
162 947
1 407
601 409
275 679
316 399
665 499
387 670
614 62
762 328
139 666
272 496
570 432
934 378
402 500
340 97
22 510
632 233
892 789
853 437
598 813
927 425
772 592
823 792
895 357
328 245
775 367
325 5
847 860
442 552
354 195
173 893
134 525
321 455
798 548
303 142
147 597
505 903
14 648
435 501
455 451
809 192
59 289
207 153
579 64
347 805
584 298
863 242
306 378
861 236
199 517
574 837
99 295
541 463
541 249
653 789
352 380
458 809
503 580
858 56
14 938
689 291
914 652
455 154
148 472
934 715
900 370
277 188
153 531
206 775
526 467
180 636
736 311
753 183
210 756
63 434
60 908
150 277
870 531
229 894
599 638
305 351
510 913
250 769
161 119
87 572
842 48
660 31
43 783
41 224
936 209
523 289
171 398
391 287
746 97
927 377
692 165
345 670
930 77
474 66
695 184
53 621
843 422
129 159
383 12
443 52
481 249
320 527
407 721
467 720
653 217
912 392
841 73
713 796
109 123
936 286
476 463
866 652
648 255
374 298
819 574
14 747
324 778
825 880
770 454
835 769
136 28
536 915
419 591
730 360
587 289
625 118
219 318
2 162
115 138
407 393
206 552
87 436
386 444
502 643
486 585
529 518
549 869
943 713
326 596
381 542
75 341
221 95
684 422
637 366
734 518
308 21
688 827
230 578
116 411
195 797
819 783
764 247
114 484
350 870
115 424
136 249
872 856
372 569
635 283
3 222
447 41
303 867
803 138
876 400
182 121
922 344
314 828
202 527
612 794
51 751
703 888
557 797
467 896
1 242
30 466
748 425
489 57
600 92
914 10
788 685
715 839
717 12
18 398
932 224
23 668
671 709
770 237
433 31
434 231
753 899
419 92
275 400
494 675
581 154
407 397
172 201
239 167
293 883
605 242
579 631
291 22
130 786
771 404
808 565
757 439
577 494
208 834
300 659
134 606
99 848
907 847
802 630
433 310
900 251
107 271
219 808
71 928
275 417
404 379
929 515
263 343
2 681
695 796
864 5
629 513
340 120
457 9
936 639
183 743
612 296
522 504
225 488
740 844
753 741
852 390
821 422
655 644
643 5
385 360
493 54
789 761
114 429
116 756
794 59
821 332
450 560
67 599
896 699
825 133
670 806
456 521
712 817
420 172
256 901
593 281
612 3
685 179
814 500
154 781
501 7
940 759
910 470
487 643
469 667
611 768
626 587
588 678
48 151
329 633
709 206
619 360
785 259
948 745
619 393
158 884
243 122
130 370
719 869
596 622
867 910
595 109
794 22
644 505
624 863
880 425
199 923
475 434
194 738
129 686
453 520
686 12
338 134
183 112
148 114
288 9
821 145
676 767
864 887
827 381
302 699
443 193
635 692
695 298
281 900
391 33
250 256
880 604
230 811
573 535
702 31
695 18
372 53
524 253
709 801
138 861
326 206
177 945
345 311
608 513
53 916
395 777
611 451
301 97
614 555
812 858
392 651
299 937
708 551
214 933
13 262
101 374
514 237
865 937
148 531
130 226
477 878
919 379
133 668
905 6
449 288
905 876
873 71
232 345
621 895
489 897
185 530
536 870
845 292
415 233
161 460
813 549
353 518
99 538
318 188
325 89
727 431
485 725
677 928
894 702
880 142
164 185
664 928
93 794
629 269
492 462
437 163
271 684
192 731
669 839
758 381
47 258
323 781
270 772
199 429
474 355
293 568
662 366
792 686
320 191
708 504
798 819
196 770
349 437
892 298
123 475
55 132
607 491
558 687
740 222
220 412
154 247
816 606
780 103
785 7
676 722
363 83
821 296
573 69
342 627
127 251
113 22
169 844
740 818
139 596
501 849
797 756
72 750
930 573
369 108
627 486
75 491
352 366
665 824
886 826
404 659
906 684
635 102
873 874
711 638
181 815
79 898
477 719
42 483
258 851
405 691
119 644
546 861
101 599
358 296
658 98
880 478
582 358
239 608
406 9
314 777
645 819
558 571
621 514
890 933
500 124
339 771
764 123
86 678
325 737
34 69
582 174
608 893
6 129
234 618
58 274
169 781
630 217
333 503
557 738
594 296
239 398
84 738
282 785
470 357
695 393
823 756
281 147
38 89
115 259
44 619
631 673
670 89
157 463
301 746
107 13
373 255
553 288
771 515
313 228
208 579
851 305
580 145
713 112
156 803
787 779
196 717
565 393
948 263
397 7
655 339
457 356
919 731
573 772
633 643
923 67
636 69
798 667
529 787
35 515
508 11
491 904
420 562
149 535
919 584
649 60
881 190
780 561
417 839
52 933
752 110
571 659
245 898
921 924
477 27
920 585
545 210
247 432
444 324
925 157
883 678
540 793
768 659
803 609
715 188
200 522
535 52
296 286
846 897
461 519
153 289
690 63
447 387
892 71
361 371
268 233
930 356
234 809
202 159
58 693
303 53
170 49
795 149
37 883
906 947
44 93
303 938
416 428
785 418
944 583
645 287
195 602
178 652
422 726
441 514
406 636
99 506
282 518
836 702
193 468
11 365
54 19
622 337
396 660
508 540
211 239
567 337
334 647
686 269
906 146
791 23
105 890
697 269
68 761
87 762
163 647
336 76
337 824
696 883
909 541
760 585
100 584
374 66
927 295
31 242
585 367
179 519
73 579
148 574
476 67
665 391
226 205
245 223
410 369
601 431
234 29
929 915
753 804
51 723
370 896
611 769
466 62
728 667
353 343
30 599
74 786
932 301
606 668
862 554
496 21
97 201
323 307
812 925
688 334
302 770
165 565
949 942
53 84
146 227
476 638
771 630
116 602
439 924
812 154
813 292
369 535
82 379
779 35
543 26
319 817
68 631
343 565
626 837
831 291
555 440
628 146
115 906
437 99
664 713
665 453
797 667
464 849
943 27
601 432
801 131
790 597
508 619
568 302
127 132
580 17
718 466
925 539
472 568
705 146
708 300
282 646
874 52
353 173
549 1
143 174
884 720
792 904
849 815
846 875
222 652
26 533
425 731
390 424
321 364
504 188
528 201
875 95
820 447
177 525
381 53
250 487
831 439
299 309
160 744
30 679
841 172
253 507
880 497
104 878
644 423
343 77
575 73
833 378
669 425
561 224
230 64
431 449
676 429
289 933
813 91
38 600
556 29
665 885
464 77
921 88
429 672
119 916

859 4191
159 552
642 380
255 41
183 203
404 148
208 66
151 482
337 353
281 698
636 756
251 299
430 372
769 42
490 363
94 594
760 500
644 13
625 2
816 656
232 845
467 371
229 697
324 306
342 561
187 624
542 176
694 426
622 55
20 653
76 482
494 113
389 19
621 570
383 774
803 126
323 278
163 328
401 90
643 50
555 641
440 429
39 127
721 108
334 739
761 181
724 47
64 584
420 415
84 635
768 666
752 646
142 177
476 587
498 357
248 207
43 403
546 311
195 159
437 319
183 588
77 95
611 548
560 562
410 782
617 141
531 432
401 224
627 49
703 283
447 824
67 659
619 366
251 328
16 398
543 429
558 657
632 456
372 278
669 776
9 253
67 288
305 541
155 737
694 207
364 120
678 483
148 618
183 334
186 523
560 239
523 440
458 283
698 517
710 613
198 243
643 847
181 788
168 391
404 835
207 2
634 221
691 603
709 88
367 517
397 284
327 528
770 460
112 207
131 496
671 648
196 464
776 837
463 559
264 47
673 767
73 595
658 387
516 306
541 797
387 382
98 842
45 774
173 337
634 318
124 123
803 509
854 852
437 274
516 798
679 383
98 752
614 41
172 545
174 197
160 756
149 651
370 659
496 278
369 536
315 113
688 58
523 526
123 831
564 613
156 666
12 764
509 290
307 286
18 556
43 808
662 217
477 615
59 116
240 265
650 561
460 768
688 137
600 400
157 74
306 189
434 282
695 3
629 191
333 852
27 169
101 354
176 754
854 341
463 231
233 58
341 441
80 424
480 306
394 456
189 799
243 548
26 92
465 660
10 178
11 768
429 113
505 814
416 42
513 764
398 110
533 70
592 83
272 74
834 509
122 782
504 445
698 382
750 798
108 301
416 590
562 419
346 726
113 702
439 354
44 86
666 159
741 633
121 436
696 192
697 796
403 754
498 310
481 153
194 543
186 245
487 647
671 628
844 351
519 479
830 453
479 249
483 551
248 235
393 819
536 587
413 283
566 451
821 633
746 516
493 386
822 109
556 685
631 235
104 147
479 575
324 215
72 136
509 77
181 656
93 323
609 554
385 544
428 386
368 136
124 17
677 336
73 290
795 453
294 351
278 46
82 432
541 636
729 1
622 608
216 108
768 809
396 554
219 514
607 32
184 394
424 409
98 80
463 407
581 208
249 799
103 603
267 738
746 782
371 236
704 746
60 711
706 847
671 318
12 348
487 247
253 283
314 421
420 740
612 259
277 64
208 713
581 447
134 737
139 412
154 654
236 785
677 161
812 202
285 616
572 734
78 219
562 446
91 411
610 799
636 214
541 469
464 247
562 39
641 79
808 488
602 683
640 351
713 831
736 745
471 539
679 214
402 126
720 13
168 474
422 69
246 281
797 135
68 776
733 554
346 675
367 796
389 474
652 382
546 79
68 194
804 287
753 36
454 270
216 843
720 230
498 291
227 461
504 582
467 442
748 857
236 5
312 24
185 270
443 677
444 391
561 667
131 606
855 793
194 697
588 229
538 88
594 847
813 548
8 384
555 101
467 152
486 153
100 539
186 173
595 203
8 111
279 676
818 512
319 605
36 147
622 293
765 161
803 644
462 449
669 759
29 674
285 131
164 852
623 624
498 604
608 400
762 539
119 575
673 58
177 61
412 759
622 466
188 235
70 320
804 252
422 674
519 80
408 642
297 740
852 520
541 558
263 406
602 499
490 841
342 830
623 411
398 561
107 97
168 2
305 822
119 753
525 645
72 51
293 544
438 454
131 336
6 689
632 512
411 351
797 517
588 426
638 428
106 286
125 605
308 664
609 365
40 363
294 202
296 757
6 149
242 324
29 411
508 576
180 229
571 354
611 283
614 260
689 211
137 238
11 382
195 544
396 90
696 123
342 762
328 714
397 174
277 100
504 792
638 722
434 299
273 548
310 601
848 400
196 775
820 83
229 460
133 611
394 428
583 466
216 190
328 787
185 699
644 598
166 333
299 146
119 120
763 259
546 97
89 394
327 576
113 764
334 44
296 94
133 210
523 131
818 602
22 238
566 552
146 658
181 710
679 331
592 179
846 822
849 81
316 408
136 473
357 740
504 168
671 424
690 841
273 96
18 622
275 59
756 75
650 344
353 584
232 850
194 57
432 750
43 369
761 446
129 774
286 92
13 548
712 96
334 641
367 774
332 849
307 450
615 700
172 810
526 745
502 351
73 352
808 152
835 594
223 95
80 478
155 633
27 812
619 643
305 341
556 801
417 371
733 322
668 441
669 144
11 752
504 30
285 316
160 128
13 290
816 831
699 697
367 96
540 739
598 338
195 646
72 700
87 428
272 371
36 276
645 483
241 309
614 297
209 147
85 187
51 656
30 596
87 214
770 747
312 228
756 42
606 413
296 520
704 389
444 347
818 104
690 821
149 556
623 113
309 270
718 234
489 820
498 377
781 561
281 856
285 309
396 421
237 540
712 776
771 819
630 710
812 42
560 83
464 184
196 495
248 42
677 853
196 330
567 837
199 175
555 456
645 17
519 173
463 586
212 135
358 482
160 101
70 109
570 330
132 470
168 570
422 488
558 491
262 809
818 726
513 268
406 278
773 179
78 76
540 500
689 473
706 360
435 702
348 466
510 34
408 306
807 824
748 620
851 754
14 269
146 615
623 779
4 483
631 161
479 689
690 267
379 758
609 857
751 406
623 461
237 386
590 197
756 757
23 182
843 463
410 610
122 383
729 297
693 196
562 390
824 269
678 664
295 726
506 59
280 511
7 628
659 518
125 627
535 854
294 224
149 296
388 109
634 830
6 174
503 737
513 490
197 129
471 429
418 283
665 215
24 713
719 635
631 190
688 229
619 158
769 556
648 284
181 445
181 547
185 109
370 454
261 192
190 191
193 544
822 629
418 647
708 580
749 527
94 175
332 91
794 218
280 454
119 613
512 775
322 522
783 427
732 431
143 520
458 90
683 184
622 543
206 329
407 472
834 36
600 841
286 289
397 855
318 179
609 90
850 747
683 258
828 316
541 171
671 493
103 336
566 235
783 585
555 761
367 858
522 450
577 290
627 620
834 797
798 303
229 837
194 323
78 423
548 726
384 730
790 613
475 717
593 418
701 647
851 790
48 526
232 369
391 260
51 394
68 596
399 858
474 466
537 778
148 23
370 163
151 42
687 84
856 539
765 42
379 339
342 325
783 545
434 615
454 409
826 158
755 236
350 688
441 116
55 491
204 561
140 136
474 514
287 331
549 36
309 762
769 825
504 216
573 190
497 189
668 636
279 311
527 230
180 585
842 129
570 778
438 747
93 25
772 31
573 730
193 256
719 695
10 639
779 544
636 533
285 274
527 706
714 778
335 22
129 347
274 667
442 585
408 857
500 455
94 426
606 298
213 427
294 407
749 756
384 311
113 207
403 200
169 845
484 787
557 802
448 276
693 764
638 642
180 286
146 785
536 110
111 262
280 514
527 429
479 721
503 120
659 116
234 735
678 644
220 228
241 169
846 5
261 806
420 801
206 601
248 229
637 597
543 570
838 212
125 236
180 60
37 32
790 486
264 780
80 376
578 411
617 423
798 59
84 698
583 654
431 493
752 95
588 224
446 247
183 182
254 325
498 570
229 698
254 292
199 605
475 252
720 242
721 644
649 314
760 94
596 23
689 102
411 731
670 597
621 249
568 560
807 466
591 635
252 548
403 610
279 21
791 491
800 222
430 393
668 182
328 857
858 655
535 318
332 769
721 361
778 167
427 482
216 335
483 299
569 282
333 599
647 459
722 853
228 65
229 349
237 781
12 309
370 382
579 726
41 189
313 632
116 276
222 561
320 743
246 46
690 103
67 287
766 159
550 763
510 4
383 65
539 259
188 792
778 360
372 855
309 9
711 442
718 92
288 301
320 100
423 711
538 767
779 598
232 551
600 812
162 302
367 494
734 77
632 722
314 536
258 765
223 125
150 311
172 507
402 355
212 362
803 606
145 191
509 54
124 857
535 21
336 847
510 436
79 452
193 171
122 243
766 824
635 480
626 557
718 624
263 227
80 222
136 192
72 282
412 738
749 252
623 722
241 410
75 687
501 218
794 620
669 518
247 243
174 337
801 323
12 737
794 449
363 37
201 277
569 31
603 366
315 269
426 207
445 44
704 130
381 591
166 568
606 400
119 255
504 252
312 277
736 784
606 328
73 700
754 455
848 59
704 133
150 552
595 699
796 224
230 620
285 463
306 810
571 343
484 436
258 348
280 828
426 295
427 2
726 47
671 303
322 289
379 269
288 113
490 213
308 380
843 276
789 133
590 149
792 76
386 79
780 840
653 470
694 259
320 376
783 696
770 700
8 462
332 260
795 684
8 682
188 739
335 1
369 522
356 727
196 729
251 491
531 269
272 249
772 660
537 246
573 325
812 661
279 478
210 502
545 118
529 476
396 466
695 317
96 76
332 498
23 46
61 215
706 35
490 220
436 304
111 780
518 722
649 129
264 225
232 96
588 453
769 677
203 500
206 532
797 516
686 802
798 359
490 616
120 549
209 481
302 710
340 42
181 664
720 857
424 5
759 583
577 564
372 230
463 172
834 464
690 365
850 366
530 675
732 593
417 58
435 391
399 254
438 47
684 339
828 808
129 202
834 813
209 404
638 723
288 675
616 852
533 146
310 21
117 820
6 242
389 69
10 241
781 337
395 735
431 702
678 134
676 654
435 677
755 600
223 184
387 115
84 207
708 564
614 762
586 265
824 532
307 296
327 579
453 644
826 238
145 516
141 840
422 733
422 102
498 47
91 37
693 643
634 583
9 109
676 620
345 300
37 320
184 652
386 88
539 2
578 654
759 56
542 13
176 113
371 491
18 623
723 365
495 32
312 163
244 171
177 214
604 589
254 452
73 600
690 159
384 578
546 137
431 308
142 580
569 728
508 28
172 687
257 516
296 74
296 489
496 247
165 120
407 303
266 730
780 837
748 92
288 578
362 585
808 153
437 628
412 36
69 336
261 528
476 409
104 587
230 362
757 200
710 400
643 402
626 358
148 585
310 552
811 301
137 38
249 297
447 394
772 22
352 615
160 310
345 720
652 291
608 218
58 698
718 19
574 820
761 787
78 679
135 526
209 468
763 839
213 388
707 153
14 207
749 285
487 778
825 847
327 124
537 264
96 413
667 642
260 75
410 500
374 354
285 93
216 263
145 320
791 642
830 561
209 291
11 46
527 132
14 489
308 827
457 538
43 465
779 762
644 3
335 601
800 174
358 799
145 31
419 31
433 112
183 405
222 31
644 219
649 452
542 836
535 489
250 633
414 219
536 850
634 179
741 788
377 652
358 564
779 134
453 768
629 812
260 372
101 323
769 636
768 175
145 797
11 661
169 9
405 360
461 390
10 600
816 667
549 639
693 107
66 824
364 727
769 523
78 689
209 115
228 809
335 727
637 552
592 136
659 270
844 88
826 247
591 390
666 190
761 654
830 592
282 418
712 229
143 177
346 527
777 13
541 692
134 278
659 664
531 207
550 25
96 320
56 301
112 442
93 760
166 278
832 584
228 414
305 626
783 429
237 525
345 127
771 242
204 694
11 314
676 470
566 413
623 835
164 130
112 211
180 112
738 420
519 162
741 579
405 526
545 355
67 684
619 363
710 253
431 441
16 393
623 30
226 2
274 388
827 102
518 675
723 441
124 698
416 168
688 819
533 184
42 548
609 290
141 806
638 206
316 254
499 134
82 354
121 325
196 273
689 56
166 149
739 787
59 702
812 605
139 748
798 664
266 276
785 50
457 393
825 286
807 858
556 13
439 651
594 466
210 4
637 683
839 784
734 848
606 371
147 192
555 335
629 775
669 420
481 116
317 59
12 84
394 491
252 427
73 66
327 134
536 144
737 366
114 115
614 52
282 773
413 486
98 456
16 446
220 134
438 318
573 390
792 798
439 590
315 545
483 387
173 120
401 518
693 833
786 187
307 283
110 685
199 729
678 648
761 673
78 821
708 258
156 71
581 599
257 112
686 784
497 546
537 555
520 482
4 19
364 465
173 373
580 655
444 700
66 395
48 642
250 450
858 159
126 700
288 747
825 667
241 183
403 599
542 464
7 610
209 441
525 598
710 452
287 165
401 204
625 348
285 113
308 424
405 514
630 570
331 796
557 656
689 767
307 758
604 685
272 334
636 296
208 623
499 520
633 349
373 692
523 657
601 849
358 390
509 511
719 348
849 469
230 845
209 377
541 664
90 382
430 642
126 376
786 220
165 478
574 143
140 617
280 103
794 858
251 716
693 413
825 781
257 134
458 116
240 174
117 614
749 748
327 512
131 268
572 418
645 561
78 338
795 460
279 215
150 64
447 187
310 839
416 325
18 543
113 336
497 539
404 177
478 88
631 50
721 377
372 730
526 593
604 411
550 580
625 512
166 309
286 456
498 391
151 195
464 320
854 552
375 58
494 785
660 782
439 638
480 448
500 470
704 308
162 276
604 675
145 383
734 75
723 493
392 817
635 95
230 785
316 664
671 448
389 780
341 472
568 585
540 758
75 587
133 393
280 529
668 586
813 164
706 477
139 502
160 684
141 743
702 740
166 753
706 273
600 754
752 554
375 49
74 455
51 57
757 445
282 735
691 697
358 472
231 810
783 516
779 624
607 192
166 526
347 419
663 612
334 17
135 597
779 388
410 116
49 167
692 21
237 698
623 511
751 554
203 448
630 395
6 706
668 232
392 647
580 184
412 135
402 410
391 462
806 814
1 450
630 755
537 101
717 727
518 455
115 19
98 105
143 35
852 661
398 407
319 165
431 266
803 213
309 516
830 810
282 147
636 147
621 449
397 311
587 132
181 53
474 33
807 289
404 223
54 300
354 587
540 278
524 248
763 583
581 564
340 508
417 348
733 355
454 268
826 301
410 162
791 135
650 674
16 316
747 414
586 71
825 696
345 41
687 605
262 197
835 326
527 388
505 661
107 242
72 82
511 427
208 848
334 496
524 731
246 219
67 727
490 210
71 819
496 698
596 520
8 17
688 174
689 48
601 707
29 122
216 671
486 366
142 651
364 52
680 461
261 7
463 511
822 768
246 256
160 299
538 414
127 279
736 447
437 139
607 468
30 351
521 147
206 279
776 570
267 699
691 48
229 615
416 410
786 450
536 349
297 831
646 639
663 311
168 799
523 151
465 376
851 567
732 621
859 31
30 672
22 276
478 481
392 813
778 376
431 707
396 44
731 325
643 117
659 176
332 639
826 350
613 544
10 698
29 697
41 419
415 97
633 42
112 496
439 127
626 758
725 668
656 852
10 517
213 488
667 200
434 605
734 586
575 275
645 502
150 353
264 26
626 729
484 96
156 709
603 567
625 806
400 740
20 853
124 49
738 677
481 657
8 31
465 386
263 42
727 21
321 564
783 210
731 517
738 474
477 709
593 548
558 726
632 521
791 675
337 200
36 618
708 489
763 731
800 413
126 756
602 42
621 849
113 511
166 323
539 231
443 113
62 127
672 47
337 556
854 11
513 395
821 685
553 455
384 321
829 711
719 664
264 716
502 556
525 292
467 177
244 270
430 499
679 325
37 666
595 224
10 859
27 226
333 132
690 769
730 303
550 242
609 268
20 376
59 376
132 338
387 234
725 573
374 563
251 74
529 707
590 198
750 96
826 7
384 268
222 615
758 853
82 279
708 572
124 382
70 427
535 360
494 88
186 265
681 354
779 321
562 705
51 653
87 219
307 234
626 500
125 621
171 100
579 99
9 852
618 202
843 566
644 122
646 642
6 310
403 613
322 123
340 654
508 760
465 66
183 613
168 279
477 307
208 297
139 707
425 618
252 788
36 857
346 740
521 224
310 774
519 747
208 184
371 788
844 647
559 666
673 735
103 341
530 653
334 661
453 459
437 636
294 266
555 746
261 536
668 200
796 53
272 281
411 81
447 248
801 796
258 83
399 398
602 77
334 316
686 394
355 300
250 90
285 681
803 426
717 742
395 454
468 132
325 360
73 391
571 128
24 776
477 445
364 578
688 233
465 349
502 561
691 753
122 259
395 118
41 297
425 5
704 835
688 775
319 287
628 118
39 478
361 45
381 637
73 820
685 849
619 556
25 697
541 811
263 659
621 796
838 290
811 646
839 586
475 420
331 300
477 261
703 714
443 157
462 235
791 420
410 827
51 294
342 251
453 300
37 146
627 667
194 596
396 49
727 354
693 742
268 426
786 222
751 400
498 853
127 682
789 179
645 612
192 552
170 331
244 470
172 91
836 549
355 482
530 526
859 819
307 110
553 89
165 116
732 468
846 47
188 315
246 700
690 478
430 360
638 582
849 711
41 514
480 46
246 144
91 243
140 261
582 692
17 214
432 46
756 146
593 336
354 667
315 105
72 247
346 506
769 378
718 338
331 515
757 195
216 343
696 740
766 677
537 133
107 472
768 190
199 374
110 118
133 4
479 349
579 236
684 33
342 14
565 353
458 399
312 526
349 300
209 84
542 780
705 598
251 220
640 162
803 302
71 276
193 227
162 44
773 394
439 223
112 406
522 711
249 499
294 354
555 763
644 306
479 309
155 604
411 268
325 459
86 515
78 325
436 758
501 25
40 833
403 356
800 733
295 269
463 833
410 296
356 663
162 665
308 485
734 452
185 163
64 79
797 380
193 278
693 315
583 552
272 328
40 554
114 660
4 474
686 65
616 253
59 566
163 247
117 120
445 468
96 544
439 286
173 651
753 261
463 20
619 162
432 157
566 325
90 2
417 65
272 630
38 665
708 380
756 390
659 35
703 483
502 224
397 76
237 383
843 228
738 297
297 552
627 829
803 603
136 799
112 827
87 21
659 396
195 110
623 370
205 234
540 307
550 637
798 65
625 427
285 50
220 455
817 47
1 589
678 385
718 167
630 784
529 86
703 411
392 296
174 96
858 554
508 698
397 500
533 551
734 295
75 339
308 663
723 594
80 560
541 477
618 615
136 709
458 106
795 778
520 200
78 288
7 747
443 786
734 65
591 610
541 180
559 597
581 434
230 672
530 730
272 469
797 527
310 614
611 464
150 97
210 129
622 196
530 54
507 116
716 320
170 108
650 214
725 835
155 720
461 551
286 69
103 91
479 800
516 577
556 99
352 28
80 710
615 448
636 158
836 499
152 672
571 179
775 295
689 596
744 807
121 15
817 538
429 265
431 558
689 31
142 232
74 809
568 658
55 499
457 576
729 515
369 806
299 190
629 157
249 45
173 750
673 624
550 294
359 711
625 245
218 517
203 705
438 360
494 373
169 95
443 95
542 697
725 647
780 118
541 710
569 688
604 516
201 846
590 30
405 23
850 827
542 157
107 731
180 179
255 729
101 717
472 388
370 395
637 516
196 388
64 65
252 536
199 819
432 493
690 55
345 319
76 134
260 333
334 129
797 567
317 514
252 147
12 112
512 254
143 719
223 326
668 772
579 355
281 799
787 473
16 130
843 128
555 823
511 22
789 303
478 357
643 410
638 384
823 597
732 306
736 128
662 248
389 148
425 53
688 168
173 282
598 517
69 217
14 1
745 235
403 627
194 611
756 559
98 315
443 419
337 228
704 65
124 831
403 182
142 357
461 65
554 336
476 124
253 284
780 100
546 355
678 295
772 677
826 524
240 615
593 610
606 306
567 726
363 28
346 501
535 436
791 28
208 698
51 103
28 77
618 672
744 722
457 32
8 225
172 26
637 387
529 148
180 573
806 857
201 43
420 697
771 211
777 248
51 74
447 481
752 229
769 588
540 377
149 21
834 393
616 191
256 665
800 363
51 697
550 549
158 660
272 409
398 564
773 450
150 771
634 120
10 357
341 832
550 238
750 484
418 597
716 857
535 34
780 639
168 745
151 707
354 118
101 762
781 840
767 53
572 504
826 431
60 847
96 832
498 419
463 825
374 593
787 672
16 290
444 348
346 776
76 452
591 104
596 357
331 820
444 519
91 239
622 331
509 658
614 269
458 337
349 211
612 357
60 42
812 359
813 111
9 809
156 451
461 517
340 266
52 284
453 21
457 210
439 454
223 277
315 643
818 185
320 129
805 46
504 19
710 520
622 734
623 212
769 557
112 35
441 217
739 414
795 144
320 587
232 765
617 9
395 245
162 815
487 331
586 802
736 317
636 279
630 611
405 52
560 48
403 822
525 152
55 808
858 317
489 561
768 45
588 719
54 270
331 218
97 100
423 522
486 514
779 472
176 558
229 759
12 457
821 472
343 735
371 551
580 132
146 496
241 113
213 766
181 383
437 336
423 413
334 418
64 157
834 433
11 845
854 3
142 586
416 538
383 100
741 557
191 470
712 829
273 514
419 357
678 539
625 816
241 763
518 709
850 672
29 360
146 491
288 691
842 102
145 734
536 175
592 316
518 3
702 380
267 548
498 774
337 57
11 184
341 657
712 27
780 680
764 452
535 190
131 217
294 647
812 46
79 226
706 146
391 230
156 700
340 65
322 596
531 558
719 260
509 716
384 336
310 453
717 827
618 380
504 511
285 91
322 711
98 202
346 513
679 641
205 164
795 857
313 666
706 452
195 338
51 249
531 780
531 195
385 301
327 156
668 321
248 449
143 388
133 605
112 657
820 697
565 53
108 13
753 832
755 561
701 224
294 702
79 700
64 235
246 135
504 407
310 540
821 204
10 146
807 354
844 744
738 103
498 86
48 265
464 644
710 473
91 294
606 651
293 633
206 21
245 200
801 788
91 343
275 83
62 845
23 380
334 260
43 610
579 225
652 153
139 330
619 86
397 668
569 59
625 182
519 22
133 727
615 599
726 660
650 125
345 4
588 192
417 175
638 231
203 162
738 427
250 92
668 739
833 239
690 851
704 247
495 552
678 410
293 610
535 487
591 561
779 848
334 81
194 158
528 383
625 848
12 493
650 666
842 147
400 599
169 112
98 182
794 651
760 610
542 805
501 171
602 141
103 573
273 144
18 330
844 194
20 396
719 727
172 274
669 446
626 261
193 283
611 288
125 182
454 418
420 601
107 331
683 270
131 93
43 239
264 656
82 651
391 358
659 680
622 369
807 812
739 567
353 411
206 489
859 388
43 275
194 224
30 177
126 325
807 118
738 347
25 284
689 773
139 292
802 338
15 692
246 31
435 218
453 711
257 718
384 551
98 32
135 756
504 428
125 260
752 45
606 152
537 490
327 222
683 657
355 109
525 377
575 585
858 694
432 605
858 378
343 290
164 589
535 590
280 264
630 775
690 465
703 514
850 50
461 478
523 303
318 448
622 235
2 92
440 39
114 386
333 740
683 730
484 219
232 372
530 93
732 417
797 16
476 461
457 103
522 291
336 466
797 816
281 631
617 442
59 268
141 77
125 755
201 802
643 151
685 459
648 661
439 215
440 404
11 545
817 502
62 445
506 593
714 224
308 260
309 178
350 582
97 226
334 828
353 88
120 829
137 564
653 696
430 275
13 857
432 411
561 36
43 787
438 851
790 164
173 222
841 243
569 63
577 265
73 474
40 643
13 815
144 303
540 720
540 157
119 502
173 111
410 419
240 683
729 647
287 428
342 772
490 245
588 228
332 857
606 746
667 585
464 45
193 415
232 25
616 745
582 809
844 461
457 597
846 850
1 730
213 709
397 552
385 294
630 640
4 171
6 260
725 47
319 136
302 336
140 557
518 191
90 202
271 224
458 441
738 436
98 461
297 651
317 354
433 304
734 811
201 812
330 767
41 827
11 425
430 536
279 482
843 608
769 776
112 32
93 674
637 674
361 167
18 467
746 92
395 646
653 445
287 203
493 56
249 450
497 61
82 324
342 157
410 767
529 824
180 713
804 118
108 330
238 451
528 333
368 243
170 585
501 57
249 651
287 548
163 215
736 243
313 383
55 520
162 109
545 1
206 219
741 57
372 700
581 576
195 413
644 171
493 747
663 755
631 5
637 376
173 184
729 5
94 657
487 615
271 65
441 187
495 104
720 663
188 795
124 852
63 852
48 499
581 791
89 424
513 706
435 754
650 406
420 358
738 489
207 291
714 801
798 765
279 551
494 614
108 850
805 218
51 615
149 614
828 730
424 187
777 787
850 715
597 301
356 605
84 570
124 639
694 311
54 557
565 729
76 762
458 141
499 654
143 63
120 270
446 682
821 107
201 741
327 278
656 448
384 610
593 388
208 337
406 276
462 362
724 633
375 10
695 759
383 90
258 320
385 840
447 259
212 677
103 278
769 735
750 823
489 812
487 735
534 52
257 24
169 731
591 632
425 52
23 561
10 807
272 404
379 230
416 785
436 554
267 81
536 514
719 306
723 823
479 286
137 627
371 647
839 629
438 676
847 547
315 748
136 202
355 92
671 155
766 330
20 722
591 101
176 745
357 831
855 95
108 832
398 562
475 474
791 610
574 118
367 732
320 848
523 692
567 674
450 47
72 635
16 252
824 450
503 511
341 764
797 563
213 738
416 210
72 415
695 596
679 446
257 307
460 624
616 486
321 171
580 663
271 790
617 419
807 320
385 407
497 426
617 739
562 164
709 728
240 328
181 5
457 95
520 515
204 823
741 642
578 100
372 656
393 448
748 385
549 677
768 207
508 386
458 166
540 83
444 290
597 740
412 768
490 32
736 771
201 211
392 66
35 224
446 558
569 792
772 663
180 225
610 618
185 218
701 76
683 577
510 477
264 711
122 647
194 792
429 468
250 294
819 473
538 159
422 296
849 92
136 470
104 576
804 183
142 667
364 552
279 59
143 701
237 306
445 642
27 156
621 164
502 190
430 252
821 79
255 34
146 441
312 614
166 321
812 57
6 128
282 649
135 857
176 790
830 410
288 42
568 844
741 362
664 192
24 363
40 233
687 22
671 637
458 88
804 338
107 770
570 547
439 425
370 423
221 600
812 351
246 551
155 427
157 451
363 788
549 226
532 46
146 234
204 495
499 371
760 583
503 616
583 455
60 219
43 373
495 472
227 378
578 767
489 481
16 273
253 348
39 61
313 31
313 466
114 792
25 88
206 850
836 699
395 122
72 520
843 603
255 738
794 636
256 702
367 837
222 631
484 426
174 49
590 370
693 570
785 380
567 17
454 156
626 325
679 461
667 269
524 356
150 37
70 682
643 849
498 711
371 306
6 114
706 348
389 656
444 450
356 837
216 806
30 713
309 616
280 305
439 245
423 31
261 320
407 289
245 646
11 527
139 594
374 810
126 781
72 196
770 743
572 508
94 303
320 567
759 147
481 698
501 111
686 722
526 269
182 234
89 429
522 445
706 292
525 589
154 159
50 845
677 682
327 481
183 406
577 49
67 673
502 306
160 10
452 515
668 522
736 195
340 496
55 728
97 852
21 787
209 136
248 488
139 587
716 780
37 376
627 517
595 322
337 499
616 274
617 164
640 682
410 615
393 485
430 169
753 420
454 339
166 627
439 37
104 855
543 652
555 165
30 215
596 647
89 295
15 28
199 275
714 46
537 366
757 97
575 116
6 108
541 36
462 674
373 466
452 576
836 427
434 242
569 829
768 448
84 685
792 17
754 105
758 559
281 217
376 292
121 410
213 4
659 483
533 656
555 655
422 335
225 1
484 819
725 409
263 174
121 523
546 115
858 129
497 757
589 857
381 628
110 50
367 10
793 167
150 51
44 466
794 837
816 64
555 207
213 299
801 618
855 667
145 14
346 844
844 117
49 618
678 123
565 764
289 847
808 660
808 295
825 609
494 122
96 421
169 273
479 441
318 292
834 84
281 455
229 642
340 462
232 95
659 755
842 847
553 187
772 35
223 489
480 217
316 778
248 357
322 42
433 546
855 547
271 103
271 561
830 696
399 636
653 790
669 38
30 666
710 615
786 809
71 129
457 309
826 605
203 790
408 847
299 224
825 770
227 551
286 815
789 338
836 291
4 477
171 615
6 489
172 436
422 606
636 235
29 499
485 326
253 628
180 276
127 496
474 197
178 715
76 728
332 562
225 19
780 778
305 651
251 316
839 87
493 663
439 48
506 369
702 56
261 70
320 243
193 379
427 42
285 832
417 554
398 97
388 514
565 5
320 445
137 217
637 123
237 397
568 712
126 47
625 297
399 130
370 46
649 118
364 703
463 554
463 97
581 25
565 16
527 125
801 84
70 77
736 37
774 847
560 711
405 211
400 301
800 672
718 245
710 31
342 59
72 118
282 4
294 190
94 677
540 674
133 463
634 299
815 167
232 380
395 175
106 349
803 369
842 681
476 50
629 559
668 849
705 217
262 413
181 50
671 265
693 258
803 734
398 27
327 83
169 260
850 735
689 589
765 400
51 181
474 654
312 146
440 71
518 70
146 827
619 789
541 298
671 730
525 763
568 328
331 106
572 448
475 735
331 370
385 715
354 388
830 685
134 787
263 291
727 286
443 713
415 722
569 95
772 324
602 677
424 63
650 594
355 639
791 501
704 412
506 426
266 820
68 644
136 13
62 704
46 819
381 117
148 202
846 247
353 105
405 656
628 274
407 652
781 809
529 347
364 558
527 687
308 77
458 606
478 238
79 52
463 739
542 450
139 700
212 478
858 418
803 383
397 124
438 262
538 7
133 247
796 774
67 56
178 544
287 413
549 74
181 667
40 513
113 253
490 154
595 59
82 26
484 620
469 144
389 545
716 746
384 136
644 737
574 45
634 469
434 852
476 547
186 300
204 37
706 163
404 347
315 737
85 294
321 646
213 780
267 103
399 698
718 811
679 611
458 101
594 419
389 774
228 306
691 113
358 608
582 96
509 65
185 635
277 400
495 329
206 660
440 210
285 582
381 434
491 715
243 847
519 443
631 470
813 719
373 829
172 627
653 102
803 96
216 515
680 566
531 259
679 124
372 63
689 850
637 423
485 138
316 740
746 383
614 707
209 184
320 69
12 336
471 344
759 486
474 801
131 461
477 49
97 344
776 472
499 759
746 39
174 452
94 46
125 858
417 520
550 803
619 527
573 642
129 116
431 3
337 685
504 587
429 427
235 642
141 790
560 754
146 333
771 675
294 221
518 644
315 56
154 317
742 735
302 696
304 311
361 298
568 259
397 759
272 277
237 29
826 209
685 247
443 809
264 730
319 60
713 371
87 164
553 687
588 717
368 542
422 319
425 759
9 362
656 158
73 133
717 42
6 772
830 737
429 56
378 544
489 424
163 811
275 814
310 755
494 268
174 835
563 855
286 793
205 738
422 104
280 775
151 81
41 646
304 189
748 115
531 645
641 197
719 221
844 606
367 370
223 409
216 269
244 495
216 222
287 262
513 771
805 656
572 498
583 88
637 700
541 139
84 778
766 849
30 330
272 697
607 3
129 192
437 775
545 96
645 167
354 442
64 129
689 837
264 451
545 3
12 238
72 613
513 122
274 740
575 630
27 520
670 48
444 426
416 259
345 483
604 665
509 101
454 485
187 651
609 578
186 184
208 101
80 810
644 393
605 853
750 493
844 361
553 253
662 370
404 553
387 230
201 517
759 841
263 230
345 714
749 251
662 493
722 517
444 124
619 467
681 218
713 112
785 419
695 534
611 218
594 382
135 233
502 547
468 217
531 659
440 400
131 308
332 371
82 496
176 544
374 647
673 297
604 90
89 533
571 92
220 358
617 321
429 600
600 764
31 243
769 113
550 533
771 373
826 447
324 547
612 567
650 468
519 155
45 414
854 604
358 74
305 731
166 263
824 543
487 185
794 599
62 244
673 782
25 496
305 255
165 245
807 778
645 545
313 578
580 728
244 452
262 239
137 473
653 608
121 631
529 229
675 2
490 395
309 853
763 167
139 314
710 482
217 852
680 657
220 167
457 851
151 601
82 854
251 782
732 215
381 842
267 106
627 654
721 543
600 289
134 215
48 207
319 89
250 304
725 387
417 414
271 559
606 77
352 844
188 254
208 671
155 629
430 167
474 799
752 720
238 218
113 278
538 164
48 446
743 681
11 849
139 307
368 287
701 254
6 545
80 744
720 456
818 327
565 745
804 761
406 677
473 116
367 302
519 733
761 649
40 432
287 338
372 810
199 492
398 164
91 594
275 561
384 781
828 86
171 829
201 706
154 5
543 653
467 387
501 417
568 470
454 336
240 7
663 388
667 672
479 710
794 654
264 279
393 162
699 620
712 448
841 745
67 93
679 595
574 810
477 258
540 187
281 47
29 772
502 266
582 239
604 339
324 320
623 347
163 578
437 111
375 734
721 60
719 633
649 533
29 586
66 244
379 653
766 491
255 845
314 743
574 4
540 551
43 716
690 663
781 97
643 822
476 586
240 707
632 122
831 442
368 738
246 691
393 784
241 116
124 219
803 349
318 47
751 814
662 384
666 63
48 426
434 408
508 631
126 34
146 36
111 714
183 169
294 116
423 5
206 687
227 83
779 366
28 461
604 473
489 665
678 517
168 505
298 612
135 378
14 571
560 112
634 145
535 111
632 129
406 161
176 28
62 775
139 294
30 198
394 639
247 660
839 238
363 177
716 430
40 236
612 722
213 548
188 661
230 116
527 454
70 56
149 737
535 390
294 474
848 722
741 3
724 481
671 582
28 452
530 185
197 459
54 559
550 321
497 628
685 517
319 52
117 228
400 215
818 9
322 34
638 740
736 64
623 144
736 386
637 448
614 850
632 573
260 646
162 660
804 91
364 824
271 156
75 311
791 335
685 787
155 383
838 421
732 696
335 556
208 158
299 105
444 713
11 445
345 475
619 606
350 153
795 713
62 365
374 3
337 2
275 161
343 426
533 539
201 2
510 425
162 50
352 621
777 540
614 414
119 579
501 132
106 129
412 832
150 340
859 383
733 36
94 472
772 171
313 407
95 380
460 226
760 819
190 442
689 329
232 567
73 269
12 173
583 219
622 409
14 754
381 309
237 464
313 377
352 774
439 814
854 578
596 745
249 386
779 466
640 663
751 539
572 159
708 436
313 190
631 49
741 134
137 488
528 349
233 60
693 35
16 1
252 610
615 421
419 92
718 608
737 380
273 811
352 425
830 793
541 111
170 789
447 522
628 496
399 354
640 598
536 785
2 520
702 130
206 167
687 554
621 466
632 478
489 740
571 520
589 2
476 775
242 587
671 25
349 784
261 158
526 682
489 651
571 156
718 779
273 478
790 656
404 512
387 338
439 376
850 408
13 841
532 238
60 292
98 668
82 249
779 677
708 18
836 111
384 644
323 52
430 563
694 654
272 289
697 589
40 627
2 515
467 814
98 450
759 428
779 306
377 726
319 735
285 400
749 737
434 525
839 829
736 245
114 655
315 194
226 382
62 183
580 302
637 768
492 534
250 360
364 355
367 67
476 653
397 50
499 651
467 264
49 360
135 42
749 440
149 633
524 358
256 36
789 514
574 189
523 23
262 57
669 663
267 398
368 174
841 466
414 132
732 391
492 56
736 285
424 46
150 345
172 667
122 104
121 786
838 385
287 389
808 639
716 88
679 164
424 189
392 369
103 360
567 57
638 2
154 125
66 491
564 414
710 94
750 65
241 524
384 612
791 844
588 709
704 584
743 599
317 624
162 774
832 79
623 729
607 164
474 558
314 291
136 84
82 784
256 88
601 507
360 61
325 219
508 109
573 226
241 366
756 699
262 265
826 566
250 378
213 630
417 336
9 608
771 94
22 784
791 131
447 701
803 382
805 33
50 360
142 823
604 614
770 593
379 731
306 33
312 595
542 308
525 420
228 428
178 132
416 391
416 76
17 2
825 224
440 856
423 699
834 475
690 372
836 491
406 680
162 615
783 534
401 171
166 301
777 771
346 22
82 593
148 382
525 646
602 357
851 713
513 326
565 584
435 118
327 369
328 593
99 200
574 690
116 366
650 226
64 449
816 710
121 144
255 661
565 384
839 620
18 376
184 112
20 478
352 519
849 191
795 592
545 9
781 360
361 274
669 834
835 19
386 615
242 365
559 167
669 112
201 461
581 70
379 722
287 70
843 256
197 534
449 413
795 421
407 144
122 339
838 5
307 597
457 46
237 305
462 247
560 355
317 554
48 599
485 83
565 393
694 754
381 717
717 360
562 648
777 595
300 726
299 358
669 635
856 414
15 162
309 539
310 460
76 455
367 277
349 362
332 486
443 806
704 716
541 246
764 655
545 243
781 242
638 837
309 71
321 778
370 426
774 19
151 787
777 448
690 761
431 724
160 462
340 425
70 138
364 38
240 28
807 740
703 589
743 177
433 411
480 488
696 810
607 11
77 47
154 279
542 852
780 601
361 284
324 144
89 378
606 778
232 743
723 799
804 543
828 845
11 484
759 390
688 156
743 456
781 235
492 453
328 34
98 115
493 227
169 136
574 418
833 177
580 699
242 468
393 618
11 55
528 219
432 192
251 260
331 425
293 23
95 159
44 53
82 384
463 470
319 776
50 857
101 265
487 492
531 295
382 585
536 357
517 845
220 835
520 585
354 333
337 387
317 685
46 469
797 697
716 483
554 450
721 451
168 110
574 373
199 243
263 44
67 695
229 620
140 236
838 479
307 238
91 301
643 520
6 107
525 459
701 258
777 831
43 728
438 199
465 496
319 277
288 694
524 492
588 577
479 723
741 74
562 100
800 743
493 741
486 515
12 594
89 475
513 646
203 77
588 779
537 815
75 856
662 727
538 646
499 491
856 306
102 132
708 551
252 784
54 827
401 253
826 253
438 154
477 522
352 658
78 358
126 692
219 674
308 292
182 159
738 218
99 674
688 325
27 827
84 259
636 816
725 294
858 189
363 745
73 169
457 202
719 230
314 254
681 284
8 135
606 717
588 225
122 45
213 295
569 380
358 784
436 653
771 354
493 578
738 316
24 7
775 737
443 152
134 207
100 740
271 79
804 813
654 33
208 654
828 714
816 365
525 128
193 447

815 4260
451 258
198 487
769 185
441 189
402 216
134 160
619 56
708 716
675 51
306 329
91 424
254 761
2 78
662 287
205 480
758 350
813 225
796 612
526 80
485 112
178 194
343 715
218 794
348 566
664 175
630 723
242 304
705 648
353 787
248 386
144 629
726 778
198 591
16 658
96 585
534 692
785 372
422 135
545 144
547 148
138 645
90 130
127 27
406 651
703 355
464 536
535 6
360 132
68 733
569 541
551 597
668 43
365 472
37 217
521 642
812 135
49 543
69 47
558 638
696 258
454 589
264 406
55 773
311 443
40 315
757 466
538 117
483 408
615 419
172 190
17 620
416 116
748 601
736 211
482 289
62 554
671 572
247 762
801 263
361 114
782 511
217 72
415 369
381 410
324 124
774 420
723 722
226 307
262 200
618 743
32 270
70 799
135 414
401 447
380 253
592 283
701 151
812 126
776 615
445 814
407 731
176 152
765 186
412 646
305 452
475 449
111 471
161 789
390 362
302 568
411 326
360 468
698 398
788 102
755 694
702 548
95 414
423 584
429 651
102 580
692 55
676 297
716 704
400 553
627 538
576 536
560 791
629 694
64 272
584 157
50 553
762 740
57 259
457 230
611 14
646 174
99 226
282 507
637 605
139 350
535 443
286 84
52 127
68 312
159 518
712 81
482 300
472 234
417 116
751 684
224 384
65 570
781 623
663 495
50 593
463 47
657 586
806 633
751 541
476 238
692 770
570 267
184 628
10 291
344 379
529 367
324 391
769 43
632 144
722 571
242 333
64 263
782 160
588 144
473 430
87 515
42 739
128 426
45 33
302 522
483 438
748 27
215 401
515 257
147 795
286 778
150 292
596 167
579 425
47 647
66 642
26 4
234 253
324 564
754 330
49 634
106 6
273 171
815 313
599 764
233 35
565 418
752 674
661 6
438 809
535 117
810 347
652 152
423 458
164 528
429 106
412 659
413 283
207 347
700 382
442 151
722 376
614 353
82 731
264 394
681 474
193 815
703 275
687 165
696 88
312 300
149 593
442 461
224 520
297 326
614 240
410 111
619 775
780 751
32 533
803 598
571 47
221 63
149 706
757 157
354 554
261 46
524 786
232 477
683 648
722 538
383 192
494 374
573 742
703 70
429 234
692 501
13 356
417 635
587 60
348 744
614 683
366 300
663 302
261 698
577 553
299 206
264 124
409 514
525 265
411 290
285 111
392 363
488 530
509 70
661 119
131 492
538 609
463 731
723 496
724 482
281 760
46 707
320 603
547 190
783 683
248 40
40 487
477 739
28 677
386 790
709 259
412 133
788 420
813 589
273 713
627 304
77 228
423 504
61 85
227 158
523 477
286 511
676 114
128 62
674 186
371 245
192 598
83 370
687 429
448 181
375 447
505 452
195 589
87 619
771 459
757 643
519 292
557 775
409 270
282 4
540 634
652 160
88 790
262 520
493 150
233 42
366 546
334 720
171 158
82 418
392 193
232 459
512 653
387 370
806 176
560 628
279 454
305 79
90 751
752 424
266 794
563 760
726 523
639 278
179 780
401 180
661 689
652 734
573 559
334 680
210 650
427 144
352 630
730 340
713 719
381 30
298 35
551 358
661 785
334 731
390 537
815 221
84 329
177 375
213 742
30 658
683 98
19 478
438 382
224 129
277 377
280 659
99 377
227 102
409 612
564 728
729 133
585 136
586 211
515 213
221 353
296 72
354 447
669 537
356 511
411 265
244 790
201 256
602 358
55 528
757 661
519 282
685 46
264 683
191 112
525 645
229 728
753 770
473 737
59 799
577 747
101 765
67 504
626 151
339 433
396 385
45 385
661 481
699 658
495 384
334 333
615 569
173 614
525 615
88 2
423 345
536 384
40 165
793 617
591 474
168 772
577 450
79 187
99 541
279 581
633 10
428 462
631 414
39 200
346 67
74 76
58 585
256 684
479 504
341 440
105 504
346 441
679 291
664 403
96 160
166 647
22 125
207 482
663 186
27 719
393 712
746 166
432 285
399 502
153 194
550 537
627 217
458 635
592 474
77 136
61 466
745 102
745 632
165 597
752 16
36 809
184 231
19 605
792 49
690 43
439 598
631 221
207 256
764 648
763 496
232 222
732 174
604 667
783 611
293 577
94 313
222 739
634 527
813 107
338 759
636 804
85 26
12 462
613 427
479 181
399 446
92 188
524 168
790 240
23 340
703 470
544 37
115 50
747 53
323 112
617 238
198 154
38 677
478 527
437 346
33 315
396 383
434 593
303 180
422 770
313 462
294 536
423 106
65 586
606 255
393 539
341 24
549 30
658 704
219 794
312 439
518 125
808 577
122 764
177 258
730 296
508 308
465 199
606 549
534 326
791 166
99 219
301 470
319 779
269 159
296 746
399 795
29 62
504 397
314 576
343 684
490 160
389 739
312 373
97 660
77 11
776 675
637 51
15 373
660 126
515 350
451 345
615 778
214 554
50 523
298 71
777 51
664 488
556 257
663 455
134 508
762 317
375 541
250 92
177 660
568 441
680 321
203 660
610 377
205 563
247 95
249 333
352 66
428 743
191 330
599 345
142 337
306 617
185 575
662 59
352 659
678 666
813 634
525 332
242 420
490 353
687 275
331 204
730 394
260 192
29 743
748 795
198 380
570 317
146 270
163 692
59 141
167 228
631 565
352 151
374 93
639 451
804 660
661 83
458 40
702 673
679 365
305 268
65 684
209 455
724 693
781 761
346 191
239 509
331 116
42 660
545 363
672 799
327 693
791 657
679 264
796 9
210 164
466 628
709 142
269 135
749 562
53 165
318 812
399 73
756 431
756 612
353 711
420 270
45 374
428 130
266 101
692 268
700 187
769 90
399 259
590 135
771 448
630 522
389 377
726 231
231 330
749 190
87 443
442 444
143 453
454 431
790 768
43 234
540 292
688 554
249 484
763 405
463 208
52 340
72 245
652 54
51 624
390 140
740 217
52 447
770 460
310 194
138 385
295 355
668 413
408 70
689 459
413 121
144 715
101 72
551 549
458 90
539 223
132 750
335 304
686 520
84 240
358 585
219 724
415 648
622 624
809 738
19 647
77 484
105 537
737 186
709 660
411 497
621 125
215 378
491 175
221 623
607 704
656 675
120 232
429 546
653 385
450 735
752 702
127 325
413 162
293 51
143 444
558 513
226 118
246 648
445 472
176 153
505 181
106 157
381 747
604 550
515 133
2 391
286 498
3 780
522 292
210 440
682 162
697 351
251 684
103 647
138 106
566 622
147 345
519 145
298 791
83 449
360 100
488 441
454 748
733 79
71 85
806 583
239 377
332 159
488 213
25 376
606 446
209 719
483 683
529 184
52 43
366 707
810 491
499 257
155 704
393 768
161 460
788 511
534 186
224 71
248 408
262 567
732 698
144 376
199 416
147 350
77 620
47 761
50 5
468 766
2 749
41 395
621 464
226 450
526 585
289 559
251 604
395 486
640 476
698 149
42 593
169 111
225 589
613 620
389 135
490 460
733 172
251 717
17 554
414 145
128 464
400 181
475 478
183 1
493 542
461 541
243 724
128 292
651 589
691 31
175 749
288 85
96 31
328 236
456 33
58 477
646 118
721 240
427 736
463 107
28 111
249 622
602 388
450 697
731 552
328 123
493 170
664 426
332 547
612 288
813 737
371 626
724 76
725 442
379 536
456 776
720 547
692 642
283 575
103 605
748 329
676 15
55 211
702 591
798 759
782 280
655 10
107 157
802 814
1 552
150 706
594 681
3 573
646 443
298 768
619 333
68 682
567 638
588 110
763 623
241 202
115 551
640 48
406 687
173 752
139 800
140 511
341 799
217 212
164 501
607 35
683 708
796 334
228 733
169 504
144 737
532 595
402 448
312 628
92 444
809 694
233 64
593 287
65 659
779 308
407 623
139 213
30 435
197 284
641 254
532 462
370 397
721 499
544 404
339 71
229 684
69 647
549 653
548 667
150 576
20 496
805 761
662 809
296 317
354 113
506 313
464 430
121 131
673 190
305 561
729 508
680 707
273 19
475 558
702 291
509 414
172 185
545 349
220 685
223 542
43 172
231 149
673 32
796 542
272 425
361 582
600 355
771 13
485 765
542 611
65 72
46 570
456 228
599 399
12 299
72 625
640 638
811 316
551 221
790 213
403 85
314 207
560 742
631 697
342 649
432 655
692 767
652 242
173 204
695 578
554 760
595 803
85 300
13 575
201 538
808 729
273 165
500 173
455 693
590 562
71 83
599 601
621 624
251 141
472 206
454 290
654 285
167 124
224 542
813 127
155 451
3 696
183 303
485 804
87 165
235 228
679 300
458 787
266 236
465 34
374 553
218 622
195 284
363 686
215 705
680 6
402 533
296 186
519 450
540 664
633 42
430 603
53 359
670 704
692 451
680 766
806 682
643 340
383 79
204 165
791 355
595 98
703 205
172 497
503 379
602 557
191 659
654 445
437 430
592 198
668 28
224 533
205 33
690 709
636 732
233 118
270 781
343 489
570 287
606 561
776 593
764 6
692 347
378 559
237 567
109 770
75 363
69 537
134 496
599 180
765 97
469 394
275 343
39 285
36 726
410 405
378 155
621 429
396 736
606 84
110 153
475 185
330 211
775 455
59 67
426 184
120 771
541 727
589 624
49 204
529 570
228 267
328 756
698 268
679 290
757 526
757 121
485 791
317 125
500 643
28 240
67 480
361 195
15 576
197 621
148 554
223 184
71 98
428 634
335 755
672 451
581 588
581 92
96 90
670 268
425 130
228 591
173 495
67 715
393 380
105 343
806 567
698 420
754 265
165 795
576 158
205 180
195 267
392 730
588 798
105 480
108 398
62 594
491 680
274 312
310 9
579 8
373 329
446 586
30 255
69 64
508 736
237 553
418 133
534 319
56 271
427 420
396 235
507 146
808 693
309 477
494 504
421 206
224 6
389 97
75 753
469 210
469 525
643 216
679 323
274 621
59 257
21 698
59 635
595 541
100 69
386 510
599 125
392 690
666 408
711 178
733 780
361 684
441 372
332 48
740 706
390 762
305 591
748 181
674 688
442 374
459 467
218 756
661 64
274 783
387 97
671 379
527 486
779 369
30 253
272 372
237 510
762 88
553 659
247 528
639 743
289 727
606 500
327 13
221 522
4 153
681 441
314 277
436 700
173 370
581 373
393 270
303 659
515 580
473 777
436 443
241 591
296 270
692 698
671 211
512 173
774 798
551 569
400 801
338 520
156 204
723 522
413 144
215 36
308 439
718 799
690 185
96 404
95 420
26 349
545 337
581 56
49 159
654 652
344 451
549 15
720 724
592 153
498 171
542 102
601 157
247 670
13 310
13 450
52 246
180 419
456 289
813 410
581 379
243 581
777 330
410 615
249 315
692 262
306 516
749 382
767 136
698 102
348 569
592 455
41 71
298 680
483 35
703 768
549 620
328 671
565 106
319 292
611 242
294 514
698 697
264 743
293 305
546 600
799 126
162 337
399 620
789 180
662 162
703 530
336 9
539 108
120 219
435 333
348 319
214 549
68 720
172 605
12 340
293 578
573 259
594 63
352 501
44 28
410 217
569 554
142 166
517 814
418 169
402 610
438 300
224 760
226 212
691 591
451 380
641 628
252 800
165 284
275 385
773 93
793 129
741 30
500 365
176 624
156 146
589 527
402 772
241 308
207 550
46 362
101 373
249 340
645 300
73 748
352 538
41 64
573 284
346 740
101 523
232 267
195 129
730 67
692 702
179 174
143 523
348 527
147 588
663 271
776 188
63 158
269 460
602 626
369 541
487 814
437 117
107 259
339 145
618 499
226 350
669 298
617 9
726 110
726 531
505 397
214 137
199 479
720 270
574 761
776 410
722 769
275 307
122 213
105 123
181 340
532 514
368 680
312 677
683 35
167 146
522 338
722 583
577 773
381 394
617 299
637 397
748 144
195 784
344 246
571 316
159 718
629 601
445 157
392 23
463 192
585 72
696 69
553 23
184 153
231 92
403 194
459 33
204 689
690 363
483 272
525 169
691 714
50 11
32 514
235 710
43 578
678 563
547 498
477 72
351 297
579 74
357 562
151 750
750 620
89 576
695 181
437 165
790 166
758 417
536 160
354 59
248 330
266 31
322 541
341 303
43 323
45 603
763 141
225 131
492 467
159 34
640 740
680 347
661 231
361 376
629 152
445 7
710 230
529 618
794 467
435 452
678 384
458 146
277 489
631 462
558 271
560 513
670 158
412 359
587 620
695 178
469 549
75 231
365 780
666 507
295 216
525 353
663 707
757 258
672 600
360 778
210 241
306 506
243 435
790 487
293 181
166 397
379 212
463 654
465 575
465 238
449 384
432 428
441 291
699 494
258 744
327 103
334 7
228 526
248 271
671 561
390 651
12 319
306 147
606 30
771 570
61 379
612 289
225 33
495 455
172 53
688 787
458 134
68 425
69 112
640 537
769 13
112 8
629 72
630 464
387 40
354 384
438 162
500 713
488 572
251 8
16 600
438 222
611 578
423 85
282 129
373 443
232 545
49 93
158 130
252 233
696 90
1 559
436 349
510 689
721 54
386 241
150 317
558 430
599 518
701 330
801 289
488 431
732 568
161 578
219 663
726 253
75 4
590 304
792 231
243 391
545 497
564 395
565 515
703 49
730 488
469 260
612 603
259 474
225 171
407 380
227 155
302 683
560 673
101 503
407 363
164 648
734 419
808 275
365 580
204 185
635 625
614 286
135 708
222 707
815 38
143 317
360 50
432 404
255 734
128 424
609 126
220 582
492 750
95 33
314 399
668 159
82 611
28 126
139 414
466 706
213 54
303 739
306 133
53 477
771 267
807 708
792 238
703 557
529 358
685 541
332 330
435 460
590 106
413 708
602 262
35 667
510 684
516 423
809 443
242 803
286 176
434 192
12 198
765 119
18 788
731 272
39 76
127 246
551 5
718 85
665 335
521 242
741 513
227 17
501 466
687 431
763 470
581 675
784 134
235 522
550 781
698 385
203 549
37 742
794 291
621 76
600 622
62 284
503 277
34 430
469 165
217 180
328 476
551 363
459 268
722 394
209 357
428 180
543 795
749 430
496 315
615 416
79 6
617 44
300 382
214 811
434 211
641 747
269 746
219 118
147 639
134 272
109 453
500 291
586 754
390 155
500 783
506 633
492 165
339 218
782 226
96 729
369 7
410 233
65 186
640 432
479 170
417 189
275 736
275 151
402 562
22 458
38 28
501 241
302 700
193 795
361 302
234 497
696 316
352 754
198 557
813 539
261 366
433 660
467 620
266 436
378 145
602 554
703 684
741 339
401 174
661 269
421 777
614 146
500 790
746 593
399 523
675 727
68 655
762 357
96 258
298 327
531 76
59 785
461 93
762 736
669 806
244 528
674 251
50 756
549 776
638 272
36 733
627 265
421 389
650 295
317 297
231 625
410 355
529 468
621 283
752 27
435 281
290 611
432 55
183 122
776 774
286 684
412 639
508 772
656 31
473 132
202 391
311 363
630 79
134 382
410 72
502 9
301 743
144 591
552 145
18 629
807 93
22 85
400 494
100 39
669 223
547 527
730 471
215 171
695 548
692 681
220 214
772 667
774 675
314 328
172 337
410 617
193 295
174 259
52 452
500 218
75 496
124 693
793 624
665 299
642 171
261 645
444 541
139 233
431 415
344 804
90 287
401 597
509 684
499 441
558 803
426 160
396 135
778 601
247 351
402 200
551 192
627 358
510 814
96 750
776 576
501 200
473 89
583 563
585 208
344 13
143 613
736 799
143 553
147 448
55 347
20 495
60 684
463 789
614 784
399 791
48 395
691 41
286 783
250 628
87 401
788 514
730 427
468 7
646 510
261 654
148 533
446 272
229 608
545 717
13 126
731 452
549 28
570 326
753 110
422 292
448 546
779 523
542 117
29 531
492 304
269 154
90 92
733 779
551 260
365 497
423 319
704 575
336 180
462 291
637 495
671 383
726 545
252 504
641 2
765 431
241 550
183 771
722 175
812 634
63 686
279 509
742 767
234 24
201 12
200 786
249 773
488 253
561 303
776 677
265 648
282 249
673 735
695 289
180 310
163 342
182 155
628 514
596 555
232 93
713 188
603 126
12 225
381 612
752 316
510 391
722 23
170 744
12 2
190 751
730 570
418 148
806 340
451 603
380 94
119 538
411 776
119 541
691 747
570 591
508 325
293 292
77 589
426 689
665 190
389 705
691 164
473 603
239 359
369 460
519 369
206 419
110 681
671 295
305 325
288 283
380 196
606 399
146 268
331 351
169 8
225 123
812 729
373 291
746 719
485 116
196 300
765 770
32 311
218 138
364 157
220 743
57 707
757 461
525 349
100 285
501 537
119 94
728 136
357 394
448 607
470 694
144 286
74 589
662 48
461 785
172 452
745 414
802 457
29 483
286 536
721 553
254 216
328 751
220 222
790 291
539 442
389 311
468 458
191 132
726 625
450 715
531 206
454 131
496 405
224 778
396 106
463 430
393 787
375 88
485 125
506 281
140 520
344 233
362 648
273 648
681 238
248 58
48 439
235 570
472 333
596 142
745 737
361 571
640 655
251 743
168 213
149 93
244 683
263 259
193 550
90 48
411 531
751 624
331 333
151 755
406 377
407 735
31 211
568 336
469 770
345 281
203 192
682 312
344 629
261 277
723 491
86 159
499 315
234 452
22 743
419 130
314 635
59 123
312 78
335 798
272 356
85 93
290 342
128 357
2 172
551 700
334 162
155 604
687 175
29 59
412 165
674 637
309 788
749 744
608 15
698 312
420 805
365 793
131 170
479 377
758 784
64 377
724 160
483 200
138 88
526 33
712 616
175 616
784 474
752 527
399 275
262 323
410 646
690 419
758 429
784 735
204 329
15 158
660 180
555 310
60 98
544 488
466 146
197 439
35 420
143 378
91 701
135 179
352 288
117 693
261 48
613 671
809 246
32 280
729 486
275 770
535 693
499 288
49 742
800 194
431 369
87 468
269 716
381 327
56 125
322 329
274 665
662 406
518 363
131 759
243 154
279 104
544 199
584 126
195 594
173 263
567 160
516 149
642 14
775 797
723 478
615 148
407 125
353 377
290 191
400 547
535 8
369 481
150 403
320 747
135 69
764 238
585 338
604 90
77 283
184 74
535 121
666 504
243 242
753 443
61 498
482 553
618 426
504 81
747 578
673 311
494 288
808 308
661 121
440 575
154 330
389 790
500 626
619 504
343 345
35 24
590 191
448 415
791 10
813 590
775 283
483 257
229 338
46 376
619 342
583 356
137 496
808 541
109 733
347 805
758 202
99 132
62 288
564 397
68 426
30 353
344 32
197 74
617 340
627 240
75 546
702 738
422 511
596 459
282 674
652 178
250 580
808 742
680 187
682 738
771 731
421 328
355 724
722 375
150 756
465 275
210 634
505 626
676 498
499 537
264 762
173 296
543 185
502 43
105 280
788 688
590 305
360 784
332 225
813 163
318 515
524 346
393 680
67 240
416 204
713 682
237 593
310 744
690 504
423 508
43 132
616 496
393 204
801 514
432 678
215 126
544 610
718 805
331 511
224 659
703 208
320 391
233 240
747 705
161 166
632 431
490 225
697 271
643 240
789 369
352 349
739 347
406 126
381 342
640 52
717 467
290 200
20 350
432 671
758 196
261 20
335 61
279 768
412 333
484 569
807 465
551 616
492 470
592 615
433 569
277 697
670 322
423 768
341 400
299 382
262 646
602 694
144 701
273 162
555 754
354 618
296 658
632 716
407 268
89 231
673 414
247 68
343 356
354 567
199 693
556 557
558 772
459 92
422 632
64 459
619 246
602 415
731 192
750 474
71 48
582 444
183 268
46 79
518 625
812 188
741 738
104 761
197 286
804 582
201 751
366 793
386 148
534 368
427 442
265 638
599 290
741 785
707 460
515 209
666 658
314 303
61 785
63 541
427 459
600 455
472 208
52 513
473 185
806 213
644 240
95 603
371 675
192 735
121 597
195 369
657 462
218 772
201 90
332 54
755 786
518 113
702 783
115 31
815 222
177 372
490 350
679 112
94 528
521 146
99 378
120 544
100 734
121 380
251 23
161 216
789 283
167 603
42 6
353 174
134 735
247 195
729 315
586 404
641 284
518 805
354 135
266 260
36 4
636 182
175 470
402 273
516 721
595 271
690 9
302 270
806 390
125 47
752 141
218 172
465 541
560 106
700 677
60 196
99 355
112 598
680 697
227 653
196 337
784 571
324 379
491 455
401 277
592 731
663 128
407 283
482 773
410 403
763 803
499 474
290 294
535 458
351 174
544 525
266 697
599 105
329 452
716 208
41 472
508 72
393 56
6 240
631 594
446 12
485 490
604 11
338 208
368 803
167 775
788 53
12 235
231 738
255 533
454 79
147 299
576 700
629 174
224 694
479 93
639 98
485 716
387 477
490 72
589 187
95 694
547 172
665 782
763 63
85 492
393 499
36 159
242 620
608 545
495 34
437 338
421 572
730 553
503 617
197 6
250 537
109 423
309 426
782 189
812 55
524 617
672 476
488 526
501 514
370 777
491 62
366 164
222 759
278 240
243 654
617 42
325 727
584 626
237 766
101 308
589 180
55 397
611 814
150 788
138 299
572 715
230 189
396 615
91 780
57 140
679 793
336 795
135 394
375 513
357 54
527 814
343 568
145 623
369 51
225 217
213 537
172 141
119 27
543 430
673 240
693 477
665 308
538 554
18 451
335 462
45 95
466 180
765 794
354 462
473 593
612 666
556 365
354 171
764 152
376 750
203 620
713 350
491 270
399 393
679 790
277 647
242 171
261 424
561 146
815 251
543 605
361 180
52 152
454 33
662 582
55 680
421 440
3 789
354 791
409 416
248 632
341 523
144 280
435 372
57 444
121 362
495 684
683 231
699 280
427 766
209 604
709 678
434 331
103 294
127 94
50 317
715 285
606 651
75 119
241 312
106 174
43 443
205 146
46 706
232 69
517 300
732 37
734 27
556 771
476 190
494 325
732 634
516 212
666 35
248 197
266 556
730 127
471 620
568 323
654 234
401 790
438 701
682 250
24 598
79 240
62 24
204 98
85 686
209 482
50 397
384 113
252 382
456 588
188 528
264 745
45 814
357 111
141 192
604 440
483 553
473 232
563 474
106 212
558 651
18 503
209 742
227 367
656 265
790 94
472 48
127 570
94 598
679 772
352 582
564 652
298 91
500 744
66 47
526 84
43 189
68 609
306 468
142 349
91 477
112 70
220 804
666 603
758 461
722 738
248 390
67 513
469 3
508 34
697 480
653 609
700 462
773 384
689 238
673 737
448 700
506 504
252 740
570 347
439 474
19 317
535 508
404 610
679 253
82 610
175 70
788 268
341 426
273 58
36 482
540 453
482 541
798 186
606 441
625 160
739 424
282 481
134 34
466 9
524 770
178 72
87 589
529 129
491 19
488 185
115 329
673 581
631 767
154 481
173 451
788 737
110 152
398 589
479 413
115 131
80 111
650 666
56 541
689 520
618 739
323 635
731 384
695 190
36 92
590 325
133 689
560 227
304 727
173 629
552 498
366 686
220 717
80 245
354 356
64 700
83 136
728 158
103 245
416 474
75 505
611 340
42 217
355 146
525 370
806 629
785 186
107 655
273 592
199 616
257 194
421 702
387 175
812 303
479 317
318 623
101 357
763 238
526 190
568 496
32 459
401 436
631 352
723 310
815 164
28 743
65 255
488 133
378 620
35 441
514 186
203 682
58 366
277 192
138 40
285 638
255 537
581 717
488 607
179 376
198 436
197 692
127 760
560 23
239 274
96 4
168 625
404 370
722 277
244 388
640 602
428 67
449 194
516 374
77 356
25 326
191 187
85 420
411 305
782 47
361 241
731 581
330 541
5 623
679 808
5 766
481 245
653 770
124 304
656 253
517 717
241 63
21 286
155 319
668 687
579 284
597 528
103 694
142 514
549 66
427 370
643 718
663 447
618 438
150 312
207 194
758 438
766 8
380 136
418 567
293 90
802 145
62 403
596 18
664 714
301 394
230 304
644 210
360 697
344 94
487 622
327 288
403 470
721 778
399 783
278 337
392 618
725 40
88 35
586 628
165 394
593 283
776 346
723 126
500 464
119 51
564 172
451 780
783 569
586 711
454 303
29 533
699 505
293 498
813 582
399 225
195 413
621 94
715 300
629 430
243 82
207 525
613 522
784 424
343 520
531 251
290 33
182 398
432 518
659 9
60 289
599 802
268 10
407 76
375 13
732 388
720 453
662 749
313 420
611 589
579 260
82 133
725 162
121 780
35 9
626 787
561 708
224 425
59 578
422 97
484 384
636 690
303 749
473 356
588 557
496 72
596 619
101 718
228 474
413 706
360 210
762 379
491 254
543 530
305 647
108 647
567 477
309 514
613 174
551 199
114 304
666 69
775 240
634 4
85 145
88 160
26 734
399 236
700 511
576 704
521 398
117 736
775 257
118 347
430 711
301 356
800 24
183 446
396 581
318 51
510 383
661 805
313 212
21 523
388 693
632 502
680 660
120 277
410 601
639 572
220 526
54 24
437 128
275 733
545 114
619 23
360 403
505 667
434 28
768 287
401 727
219 72
392 801
714 450
300 194
692 329
702 450
505 516
221 554
476 342
518 803
364 637
410 526
283 805
748 394
416 355
643 14
791 158
448 72
476 34
334 144
390 102
599 668
93 126
378 118
71 670
241 536
769 111
532 573
384 624
361 268
226 761
392 708
228 351
195 91
656 743
234 34
197 521
399 333
556 64
206 132
316 23
328 195
140 312
673 497
86 196
796 548
808 167
700 397
627 92
352 355
758 191
652 803
376 798
319 582
813 113
45 458
494 167
705 424
742 171
49 15
101 761
83 98
376 472
230 471
711 81
215 172
724 553
712 772
590 535
723 58
95 316
634 174
772 405
438 125
560 678
378 311
88 6
507 338
197 167
507 716
777 160
592 732
77 465
195 718
724 598
236 277
733 625
718 689
534 514
265 385
169 129
305 245
762 189
564 62
801 783
87 180
644 118
409 537
59 357
21 550
500 425
5 700
579 4
673 95
468 589
563 520
711 78
387 289
241 809
679 428
513 750
593 480
259 33
62 125
682 23
709 153
523 694
252 347
144 308
327 572
37 567
721 558
431 270
478 667
209 165
579 802
691 809
233 212
639 265
396 77
15 355
215 566
588 761
37 333
3 181
352 369
704 395
425 350
501 425
676 148
381 37
364 488
38 787
729 595
454 567
740 787
483 749
763 175
599 214
239 372
266 293
752 188
365 391
539 651
811 430
388 568
172 330
428 297
366 489
195 78
748 200
415 683
252 799
218 302
348 734
737 677
497 349
78 281
156 419
636 200
808 449
306 198
659 460
790 284
573 132
810 443
669 251
746 34
410 88
359 79
490 561
309 257
148 129
57 464
426 56
483 530
12 11
214 390
159 259
288 803
698 550
457 281
458 34
646 787
60 210
632 648
599 785
556 36
59 516
649 81
779 376
429 681
699 251
433 686
103 759
142 54
400 6
239 685
718 383
331 542
82 558
563 292
29 85
67 158
138 716
502 488
536 620
371 394
758 778
706 292
358 132
585 192
810 328
437 242
807 614
150 652
687 491
592 480
21 609
229 680
253 760
589 649
329 216
699 457
674 105
613 222
445 572
65 131
165 6
412 605
473 230
66 340
699 522
747 536
723 428
779 462
726 262
193 554
418 625
127 572
75 199
221 124
133 439
459 585
390 460
607 809
50 657
38 151
720 58
539 670
578 440
687 69
815 112
428 278
311 424
752 619
751 216
519 731
422 129
464 259
30 398
319 76
249 589
529 56
313 372
201 348
398 373
551 348
535 486
663 45
758 149
261 195
628 471
695 171
806 106
510 439
369 84
23 372
560 315
669 119
500 745
609 240
468 616
493 106
529 685
785 496
697 118
237 85
700 787
631 326
85 814
704 192
387 556
225 701
376 550
140 263
512 504
640 173
89 345
740 750
401 226
294 418
224 618
139 591
559 4
248 502
606 86
212 145
783 145
604 773
695 51
473 240
629 563
576 527
421 651
722 440
606 765
523 297
599 2
412 277
468 362
587 634
434 774
715 84
110 384
733 728
402 351
665 501
663 582
595 449
557 522
171 211
320 252
670 315
378 501
433 435
658 172
635 439
627 329
590 580
592 424
77 90
521 169
757 509
390 372
506 401
182 348
680 795
487 537
645 638
519 770
59 125
223 28
181 414
357 677
560 107
86 268
201 630
432 210
757 132
244 700
209 285
191 180
548 376
341 775
468 369
179 11
445 455
806 782
713 762
381 597
539 756
558 622
557 184
796 370
209 413
100 527
712 63
657 287
417 594
272 315
58 811
485 440
267 4
336 467
462 194
468 154
159 38
490 139
311 316
369 285
793 467
336 541
82 634
193 82
334 271
491 620
592 233
346 523
365 308
402 318
525 779
150 85
318 417
71 642
583 257
310 208
60 744
527 787
512 131
236 438
36 171
699 381
203 240
203 263
461 447
703 167
279 106
562 322
779 200
708 178
765 618
490 597
162 257
551 407
166 299
3 124
792 546
596 744
613 694
135 619
427 178
266 662
447 736
432 7
213 595
396 21
469 569
697 176
678 391
365 301
366 453
226 616
365 403
410 137
334 217
501 136
183 545
457 146
511 291
558 200
423 674
263 750
729 171
674 764
306 505
109 110
736 270
682 653
221 288
685 187
65 645
488 583
416 489
808 197
792 116
314 79
439 659
351 70
276 628
120 733
390 488
249 63
534 354
432 62
640 621
381 117
182 517
141 645
592 374
594 134
776 117
43 558
429 521
749 301
435 136
73 653
412 268
224 250
339 815
635 719
584 31
203 712
235 282
607 514
2 514
39 380
630 252
210 522
372 81
82 801
66 186
457 111
507 289
146 697
210 416
661 246
401 586
586 698
183 357
264 326
127 404
421 42
36 447
493 159
476 249
60 774
22 181
170 287
703 395
46 514
747 94
656 356
450 575
108 634
515 84
572 470
493 48
555 61
189 471
317 258
372 486
100 547
122 103
611 660
417 671
235 275
736 727
273 175
2 541
299 321
557 301
399 30
119 476
202 563
525 260
729 665
641 271
508 85
146 125
763 97
40 93
630 102
100 447
66 657
361 90
551 445
699 110
239 153
114 79
774 380
207 533
813 154
66 490
468 554
547 585
683 326
475 127
276 4
475 133
579 527
726 185
140 321
639 391
344 359
225 405
255 398
662 730
293 274
810 786
380 377
796 431
506 522
784 249
1 574
164 222
607 202
387 646
332 130
445 719
207 216
601 178
730 797
305 299
146 238
179 226
516 282
366 481
499 803
591 803
392 544
391 681
540 727
748 291
676 192
695 580
364 642
165 10
756 483
488 206
318 642
671 154
175 225
565 126
241 103
35 530
643 126
738 79
459 111
280 768
102 258
652 40
512 416
752 127
402 133
538 470
223 111
596 192
762 767
673 680
107 21
324 533
236 234
401 496
282 338
114 522
426 69
579 25
669 754
467 326
489 424
215 733
678 735
607 26
227 42
366 547
701 652
260 460
775 11
409 449
725 291
234 35
15 751
586 617
570 114
223 520
408 647
203 791
177 385
602 553
396 88
490 271
144 342
201 267
756 648
594 287
776 454
550 78
66 324
551 84
644 276
756 212
588 449
808 482
509 520
274 128
717 622
243 49
591 686
483 181
339 207
272 620
447 189
413 322
487 511
273 695
723 632
239 622
60 198
244 539
163 282
101 4
46 610
411 148
674 444
518 111
643 321
646 629
314 319
703 246
248 461
66 300
47 425
549 732
508 460
626 449
77 417
352 379
700 78
391 460
709 337
229 716
68 36
730 291
165 84
25 308
334 302
685 638
725 561
228 511
602 172
710 69
151 186
290 93
432 262
289 651
314 794
542 642
669 10
500 231
123 112
201 785
510 190
437 10
385 480
485 643
669 368
463 177
672 129
431 408
753 106
707 263
387 277
279 259
301 786
411 395
641 554
218 13
551 253
713 32
132 349
668 100
762 308
411 245
433 32
713 291
626 580
1 292
247 359
224 171
481 211
668 302
797 206
656 717
180 575
58 568
198 46
228 761
229 480
260 72
453 178
705 760
166 123
650 171
351 158
409 809
66 794
448 705
339 472
361 32
396 468
730 808
739 33
150 47
565 292
411 35
637 414
361 811
724 333
179 86
502 638
475 540
451 458
131 686
172 322
652 559
762 430
14 211
252 362
456 576
274 4
596 711
150 52
526 814
525 798
380 684
343 280
21 44
71 777
275 552
664 126
811 241
791 496
264 535
671 755
29 84
673 315
411 394
87 322
144 124
235 262
811 14
170 727
596 82
335 238
733 27
266 547
233 570
344 30
144 395
418 742
36 137
587 494
402 386
204 10
5 108
407 481
445 714
209 449
66 74
305 152
587 251
608 799
725 145
46 265
46 156
618 357
229 285
114 90
256 573
335 619
770 767
456 726
777 79
25 359
652 767
227 585
122 523
800 511
21 170
566 673
1 811
608 125
442 548
798 211
65 213
23 805
116 761
742 541
690 34
88 123
119 467
611 11
339 681
690 437
730 564
256 575
505 114
256 160
368 357
793 100
757 768
812 429
613 657
541 212
306 240
418 342
200 447
535 481
393 647
339 8
399 595
12 495
407 797
20 287
674 802
442 259
709 653
239 134
774 27
672 395
733 231
163 49
656 94
808 774
646 798
718 439
203 275
810 265
224 764
5 94
778 133
101 415
814 575
502 269
182 655
92 118
2 289
679 729
135 645
260 633
686 192
334 804
564 114
323 369
306 564
20 160
689 313
398 747
311 659
2 797
3 153
741 720
744 129
393 648
75 597
548 231
88 271
785 351
273 757
628 70
3 294
813 265
282 774
488 153
13 321
274 589
552 13
65 300
592 543
644 549
370 165
812 12
596 289
611 626
154 738
644 709
327 386
110 686
348 698
664 43
595 597
82 55
172 770
446 225
448 192
266 331
199 38
527 246
792 580
99 735
227 425
67 294
356 136
485 470
512 30
768 136
660 337
661 435
613 449
385 760
740 92
691 487
548 398
664 718
368 192
24 98
422 398
140 310
602 633
344 308
538 749
570 53
612 787
376 510
442 119
95 208
745 803
164 635
393 439
784 310
18 403
473 193
327 234
679 273
661 774
665 85
246 814
406 370
741 779
64 604
466 471
102 489
812 379
396 571
599 768
592 638
244 555
668 488
715 40
318 49
85 735
670 767
233 369
506 234
804 693
491 114
567 217
493 394
175 199
183 498
273 594
481 440
672 271
375 465
587 770
621 584
407 542
163 638
663 654
557 338
82 41
407 769
800 419
450 206
87 135
201 615
181 78
510 321
475 297
367 440
244 643
632 476
201 666
525 47
411 12
230 176
107 448
183 544
494 675
226 728
468 336
106 136
412 129
108 660
241 295
485 192
128 47
664 732
22 410
407 482
523 573
631 428
553 283
470 744
489 740
396 784
142 38
559 660
96 29
502 610
672 373
267 126
539 717
531 135
346 477
161 552
209 589
442 770
757 158
48 111
285 740
622 130
479 174
551 130
590 566
664 478
685 290
45 568
247 75
319 761
233 521
197 531
164 653
381 641
348 84
334 558
687 110
581 98
691 107
50 417
324 221
714 325
309 687
534 237
695 756
313 530
365 589
221 755
392 330
247 724
318 630
631 149
692 34
490 27
556 621
616 356
500 685
375 158
602 315
732 16
806 508
539 373
12 756
709 374
579 178
360 728
730 753
14 340
414 601
435 257
456 453
517 573
662 117
61 349
708 13
43 170
562 803
250 256
17 161
6 112
115 300
703 290
564 450
716 744
107 38
550 211
674 158
664 445
34 761
758 278
61 425
634 477
282 438
413 704
731 487
588 292
37 117
572 27
457 735
259 624
80 211
445 747
579 187
407 754
161 249
201 290
50 448
342 258
96 504
662 519
703 783
117 424
456 577
49 67
175 647
696 108
679 432
20 241
730 196
801 311
536 174
604 394
753 395
297 112
275 681
461 498
231 530
335 626
502 742
248 171
806 805
20 471
476 780
539 276
140 795
650 305
137 706
762 384
756 623
654 568
713 92
434 26
758 795
255 438
41 305
414 719
498 63
635 316
124 536
531 639
161 760
308 300
241 359
293 594
739 330
332 112
532 151
615 178
393 169
193 626
506 62
96 412
159 727
679 299
75 626
224 296
558 310
62 315
2 597
375 574
464 312
582 7
435 231
717 367
585 649
26 799
79 11
21 196
712 113
161 256
199 200
695 711
457 460
438 190
21 313
210 748
300 187
82 770
502 332
309 643
412 762
365 369
293 404
757 671
41 798
451 110
68 642
210 200
670 530
32 130
485 808
3 594
108 405
532 26
201 64
643 121
554 11
187 405
632 518
155 537
50 167
343 558
550 805
534 253
807 49
238 739
774 241
639 798
427 429
416 405
396 270
197 611
57 431
277 253
334 454
541 246
320 486
104 563
670 394
639 258
566 230
325 257
74 118
312 213
535 455
791 626
99 163
334 700
210 195
429 717
396 39
53 573
806 85
771 520
792 643
278 520
320 735
190 766
324 217
248 468
659 158
752 442
237 118
590 540
366 362
586 705
19 447
335 340
771 578
141 40
532 700
348 705
810 442
756 633
409 323
119 440
447 799
232 196
270 31
600 78
96 627
355 798
339 568
375 195
545 680
32 144
378 715
144 15
18 466
74 311
679 470
495 624
792 650
207 497
579 15
155 90
411 641
232 301
375 188
305 423
469 310
558 238
459 189
577 37
778 238
282 260
741 642
235 340
577 335
714 259
110 317
771 389
790 419
521 576
596 697
282 513
709 12
729 137
199 659
574 735
665 673
757 272
81 474
779 527
427 242
411 745
448 797
673 289
748 803
639 129
71 14
552 728
753 518
807 79
807 666
421 43
545 46
243 634
812 728
239 159
430 347
86 4
32 715
324 460
714 443
509 301
166 628
661 518
239 51
663 486
426 380
245 216
52 552
581 740
105 187
656 709
306 108
334 716
73 386
110 196
75 482
550 450
411 491
322 281
161 106
566 572
710 688
168 569
298 286
378 32
233 680
803 449
162 459
182 453
364 472
661 414
257 297
168 712
501 166
545 322
656 216
433 81
52 155
804 32
312 403
632 657
579 138
45 399
410 323
320 450
769 499
607 42
404 744
258 271
294 351
282 204

932 4716
874 63
530 640
257 521
253 615
60 121
182 557
914 834
493 270
365 665
901 359
704 402
243 782
429 252
80 208
107 565
642 495
473 712
790 910
592 301
646 81
811 6
885 19
833 450
44 34
427 369
709 906
727 383
93 513
639 4
159 499
53 859
115 573
807 537
331 887
723 546
613 783
101 281
781 377
301 542
56 116
144 845
253 357
491 38
785 761
453 701
4 924
98 412
608 264
929 142
723 801
553 810
199 51
146 189
547 89
39 127
82 542
545 478
449 289
871 738
161 57
788 91
568 531
490 401
849 712
257 503
60 733
748 201
62 14
170 787
154 188
672 396
788 341
88 67
512 176
734 478
55 204
202 640
441 3
189 272
591 775
706 487
49 616
863 5
569 463
505 601
740 397
61 257
651 346
17 292
672 165
85 549
104 423
87 251
437 27
723 257
275 574
627 533
649 682
600 448
206 371
541 349
82 537
356 517
656 190
638 738
824 741
878 827
44 269
789 740
441 155
59 836
8 359
758 710
135 796
686 852
212 527
17 783
451 46
508 536
611 454
758 771
836 687
790 930
455 736
628 246
314 378
647 539
427 610
636 547
670 840
929 850
822 804
108 319
309 586
94 805
849 589
21 812
818 792
423 584
706 721
139 299
891 501
449 402
72 557
14 656
337 391
253 129
2 789
785 83
345 487
577 292
510 504
800 683
283 689
172 84
10 850
324 597
236 42
456 347
420 801
332 72
642 172
543 562
123 760
725 482
141 388
677 135
39 339
338 489
304 601
218 902
659 62
453 862
20 666
828 132
829 754
466 57
369 629
300 122
751 165
34 365
910 109
470 590
307 216
680 606
911 829
60 891
777 690
596 15
323 876
469 92
525 704
571 395
195 312
214 244
863 498
822 386
686 689
520 907
151 541
885 546
39 910
669 64
47 717
393 221
286 817
360 776
769 423
73 530
863 835
70 853
901 674
131 763
760 383
300 661
390 356
872 227
89 227
637 114
414 366
676 97
507 881
634 858
848 561
806 213
648 212
558 417
778 14
800 586
671 473
307 33
734 664
740 252
281 292
738 20
191 164
306 689
552 84
54 663
94 561
348 506
352 426
685 296
9 402
541 473
304 269
362 228
345 522
494 424
475 468
348 642
100 881
526 65
214 883
931 562
22 658
822 167
198 389
309 16
787 395
702 18
409 316
85 910
161 25
514 361
291 749
164 613
697 805
200 194
759 527
443 550
207 513
189 22
134 308
373 356
276 474
915 448
124 814
910 693
490 448
73 120
37 413
774 718
352 417
897 562
707 761
890 571
83 51
525 579
892 157
8 716
627 898
826 194
685 750
756 263
95 365
119 922
2 224
466 565
602 486
483 298
89 887
255 107
718 849
130 454
4 102
169 372
481 631
317 614
466 302
643 578
595 671
587 896
291 16
219 260
591 169
738 719
902 730
553 467
494 133
505 703
357 771
444 392
745 138
691 527
304 315
843 65
32 837
690 801
470 876
381 366
889 654
450 26
76 105
507 722
386 305
80 364
207 300
851 63
264 169
583 890
485 683
785 10
715 329
307 114
628 926
404 266
98 333
243 857
192 138
800 4
427 691
172 586
533 717
182 533
589 107
85 723
457 589
150 906
704 21
94 597
6 349
671 691
339 58
20 280
620 678
70 318
701 158
256 75
866 140
686 275
887 877
636 57
28 710
88 767
468 589
605 220
98 766
777 370
702 556
595 913
579 500
462 664
373 392
106 415
376 601
490 156
35 51
272 431
897 359
293 598
737 421
404 687
630 394
494 919
635 123
192 732
396 140
29 561
673 216
874 126
69 197
623 84
130 542
699 556
573 640
99 853
206 91
868 506
699 297
655 381
48 21
273 853
657 791
128 552
256 66
458 585
628 176
847 556
831 806
479 221
629 712
172 174
726 182
375 28
305 701
32 851
351 272
15 736
39 78
182 270
312 345
679 531
224 459
95 105
885 688
574 575
707 176
779 239
377 744
104 336
512 418
694 405
821 149
532 791
59 597
558 452
734 622
429 730
265 649
359 36
362 344
177 35
886 53
864 63
789 683
739 624
930 282
81 270
148 511
444 851
85 334
1 418
288 341
77 250
257 666
68 617
879 895
556 172
829 10
135 728
831 506
579 341
852 861
669 609
598 754
216 845
567 698
483 359
452 437
753 237
560 226
439 295
352 60
661 306
407 286
617 59
154 731
704 878
896 467
593 194
900 791
151 789
918 925
779 539
815 370
484 111
187 614
622 311
452 158
920 162
457 45
777 705
337 202
29 692
351 583
31 783
217 839
400 374
240 416
39 495
75 763
756 499
336 174
49 678
86 430
228 321
688 467
818 161
243 312
568 275
108 180
1 662
590 126
223 932
44 716
614 319
7 510
411 621
618 271
188 477
322 758
569 910
348 878
587 287
219 456
836 665
774 890
520 698
387 302
541 358
209 645
262 540
67 172
304 79
547 662
841 866
329 3
458 172
331 765
748 342
387 882
742 631
29 653
670 677
274 129
130 666
863 156
843 292
242 269
82 222
716 630
262 29
290 920
199 185
815 198
516 218
258 246
494 399
495 865
615 700
890 464
375 742
428 444
800 381
513 319
489 698
515 345
77 344
295 481
444 9
135 120
691 859
466 849
528 220
671 404
531 770
398 717
883 621
755 288
242 744
166 689
78 66
100 102
304 193
413 700
669 776
800 575
753 842
537 664
774 377
851 43
7 260
707 799
337 536
249 155
393 286
893 653
32 270
821 202
291 922
751 593
238 808
833 73
611 664
833 725
336 395
9 315
923 564
263 47
139 606
811 299
568 91
549 7
109 378
623 447
148 736
241 429
563 919
632 56
284 167
31 416
897 501
538 347
631 554
704 79
479 169
99 192
407 11
338 197
411 665
528 413
193 776
267 733
731 903
54 649
535 337
494 302
611 560
331 660
190 402
245 274
323 696
787 711
622 497
52 12
763 348
112 164
104 824
759 552
481 497
124 396
646 448
49 770
118 11
549 757
772 760
483 199
128 809
790 237
493 212
556 361
721 113
93 217
8 740
100 74
301 770
297 610
471 579
823 436
39 371
143 222
230 793
471 220
667 842
387 873
134 503
193 156
154 43
50 319
171 685
537 247
625 708
899 741
643 521
846 81
225 665
82 185
151 719
655 22
11 252
85 220
423 401
713 105
363 534
514 74
535 373
739 883
255 867
334 35
191 722
571 610
432 103
654 662
886 311
878 209
878 266
608 309
750 485
737 236
756 56
132 421
371 90
615 199
229 408
475 216
505 365
851 665
538 281
418 57
474 138
256 457
457 517
39 470
847 421
153 662
652 903
868 395
709 309
905 858
428 719
529 275
488 173
432 650
87 458
510 514
864 653
141 908
363 837
651 922
121 865
13 584
813 553
108 714
514 624
643 164
384 919
4 576
276 730
53 167
818 57
393 564
659 817
605 458
680 618
327 249
572 802
151 309
151 640
771 174
209 342
446 665
655 677
69 157
288 279
513 895
788 378
145 776
324 580
518 488
847 418
685 910
595 679
725 732
767 294
654 13
271 127
786 816
253 396
217 11
716 433
348 123
718 110
574 356
225 224
243 705
99 405
146 684
430 476
748 47
289 515
737 730
253 541
544 241
392 788
927 631
15 329
145 880
265 167
704 481
795 407
635 33
670 175
375 191
2 624
103 876
604 74
407 749
273 279
535 674
357 503
95 812
518 564
171 187
667 644
401 788
427 366
488 710
774 603
795 155
55 196
611 153
560 554
243 710
617 379
227 640
337 637
176 803
655 63
677 467
327 531
737 723
419 732
131 541
64 99
835 650
306 188
163 377
60 893
351 688
636 424
229 846
860 621
824 749
189 576
398 814
475 31
419 826
666 641
388 203
425 583
134 804
105 14
362 177
748 347
894 270
732 445
143 542
737 46
829 640
87 714
10 27
601 801
212 51
341 102
324 226
90 294
843 371
811 891
328 814
259 719
369 744
304 584
355 707
62 277
525 163
375 796
308 203
88 666
1 173
882 342
866 865
6 374
669 793
565 562
529 177
141 758
328 270
163 770
419 89
112 874
884 771
276 920
278 347
407 744
320 555
29 160
88 89
89 498
307 505
220 704
699 744
849 557
77 753
98 635
872 858
195 601
658 812
490 241
37 177
530 924
713 928
932 708
707 127
545 264
772 42
514 367
915 695
734 665
330 835
420 414
439 402
261 926
225 920
545 908
229 880
61 673
54 255
707 264
146 356
854 832
751 413
451 748
737 629
772 156
901 166
920 754
118 908
373 444
682 26
393 342
231 359
676 496
325 313
453 500
2 259
112 698
519 305
422 487
150 316
709 339
450 681
727 903
329 545
403 408
135 282
914 921
611 159
296 907
278 506
387 340
765 908
338 724
448 838
529 344
549 687
198 333
219 200
343 480
239 590
862 554
77 234
132 286
291 691
762 527
139 689
225 462
451 867
639 402
466 835
108 653
295 861
771 436
419 30
368 247
868 462
205 6
717 222
173 402
181 232
32 9
451 327
325 668
804 308
666 783
143 922
735 321
147 808
574 65
829 199
647 448
317 488
211 687
46 211
235 675
750 461
193 297
340 760
328 574
773 378
235 454
595 374
78 462
45 873
11 108
737 336
96 401
253 902
824 318
715 106
698 174
844 129
522 801
19 902
528 746
207 835
725 642
176 887
549 557
103 132
623 612
618 356
729 107
74 564
54 189
789 267
238 692
131 26
870 688
78 311
706 209
523 557
119 4
675 60
69 767
787 108
514 924
382 771
418 328
352 552
147 817
367 799
863 397
528 250
175 306
445 9
658 209
784 597
273 560
205 907
705 816
872 825
98 568
53 231
763 142
486 619
674 232
909 644
117 747
716 371
790 531
93 545
901 628
205 423
406 296
120 385
467 298
655 517
455 550
162 689
494 208
154 638
435 767
629 213
738 809
53 9
512 912
257 190
62 617
541 927
644 817
884 187
486 158
215 436
694 91
841 560
854 194
420 35
219 657
150 778
524 681
64 435
448 828
432 38
585 480
273 553
148 693
242 709
422 394
6 703
317 107
118 691
868 629
212 391
86 342
432 181
161 412
235 373
755 118
792 735
685 267
279 478
135 309
265 609
785 373
217 562
622 4
201 867
157 266
458 473
684 888
773 14
793 269
64 425
904 776
636 851
378 845
714 877
327 41
183 147
168 3
567 285
435 783
745 783
548 251
623 92
328 926
181 612
384 144
795 712
331 187
60 347
794 353
314 639
789 539
97 397
198 36
686 39
526 27
2 671
431 294
821 319
725 547
456 47
737 667
494 73
95 238
647 610
607 43
673 888
215 349
135 403
159 585
566 923
151 200
189 809
882 142
240 861
205 187
453 30
579 114
547 537
393 452
545 733
638 498
208 754
715 787
611 504
242 128
190 757
438 36
600 753
373 251
821 573
878 13
550 542
129 378
38 313
32 816
14 313
109 925
479 194
561 250
171 426
13 554
433 497
456 409
34 90
695 275
8 7
792 860
595 112
617 744
462 754
670 705
581 664
567 631
710 867
71 700
548 599
419 464
239 658
774 423
309 867
388 417
221 260
428 930
766 90
731 539
734 789
54 118
588 589
665 374
38 417
593 542
61 819
905 829
600 888
32 778
855 762
327 411
53 241
664 736
420 865
439 114
830 411
208 902
544 736
210 483
512 281
235 930
647 337
291 43
183 642
699 877
331 407
596 700
139 917
581 641
857 835
804 897
571 130
550 302
862 492
737 216
115 617
21 698
166 584
334 126
634 407
884 404
690 165
356 612
690 827
300 260
863 696
900 600
498 383
740 799
869 279
138 444
86 606
804 60
54 248
220 272
38 299
665 389
131 682
868 209
453 196
337 543
11 832
84 650
486 665
71 533
821 266
53 363
110 488
55 27
591 609
8 420
471 365
67 246
655 66
913 359
273 302
74 102
884 683
901 454
406 41
471 29
232 391
85 43
507 66
582 78
199 392
163 891
628 688
120 316
249 306
838 298
86 463
636 436
474 898
293 340
159 829
104 59
406 925
245 166
616 454
724 687
798 854
102 719
857 361
245 597
434 576
244 36
929 509
884 515
421 267
556 621
796 281
240 900
341 41
513 264
706 817
201 292
154 418
241 314
334 802
862 919
928 123
831 869
909 578
769 215
125 495
219 335
30 5
317 587
117 190
913 467
525 562
675 819
86 29
233 575
235 335
308 580
121 801
98 16
406 473
735 237
210 460
602 55
86 140
35 116
734 552
699 461
607 588
205 881
478 880
524 747
871 662
50 30
910 407
696 31
356 845
491 519
572 804
503 169
480 687
848 765
501 316
673 142
892 419
820 384
507 903
128 208
324 603
224 196
153 661
170 733
618 738
725 722
579 571
526 541
819 200
464 808
159 509
699 127
737 26
777 593
615 594
355 21
790 324
141 488
624 436
179 199
550 908
756 334
32 137
15 857
355 98
156 113
764 286
929 140
248 510
289 762
677 433
327 870
860 444
457 105
628 459
115 184
150 68
334 737
425 715
745 734
182 819
445 825
657 845
739 281
626 532
191 898
711 687
605 150
579 296
775 576
433 156
355 909
775 585
911 281
342 133
291 552
291 127
437 196
764 208
535 192
276 627
170 26
699 772
724 783
465 251
853 434
636 550
220 402
659 639
37 676
199 149
643 172
347 251
636 620
497 743
758 113
684 80
698 744
104 543
763 429
855 3
583 382
695 15
806 22
917 497
907 700
189 922
80 775
800 91
433 550
87 657
83 212
642 808
218 925
93 31
241 190
315 688
154 133
852 476
143 539
33 359
73 614
789 920
572 366
668 260
427 612
157 222
227 692
412 160
602 474
816 514
93 801
22 649
549 511
685 221
64 100
670 4
670 473
528 152
505 406
425 152
125 496
753 498
915 863
202 619
564 803
209 155
740 850
450 106
738 127
453 239
37 480
442 743
684 426
793 780
276 735
797 48
376 20
809 346
360 771
145 508
314 856
779 426
809 21
759 919
483 95
433 313
180 165
843 370
899 593
220 81
370 609
795 896
94 555
615 718
336 266
449 854
265 353
250 791
97 421
669 691
458 729
563 176
153 366
190 805
618 26
428 541
179 20
573 116
125 762
76 917
607 838
518 714
187 468
151 369
579 192
482 552
428 359
204 485
529 660
694 78
278 15
240 480
40 221
258 377
387 432
613 801
617 403
889 662
837 3
528 878
786 173
895 285
418 883
808 194
756 674
614 682
463 575
229 697
655 445
52 870
255 866
585 862
112 787
442 435
332 478
227 472
599 766
876 203
114 415
238 236
403 613
596 797
704 614
137 784
351 282
375 58
843 79
824 619
805 66
435 747
240 487
755 85
38 371
70 620
497 392
334 554
399 747
692 415
569 870
14 760
549 408
130 896
475 778
42 814
303 858
45 734
170 162
900 214
487 532
750 331
491 138
571 33
365 877
369 412
78 924
831 932
617 374
284 918
491 468
255 311
899 678
833 285
634 547
929 783
100 350
468 326
746 799
746 232
929 344
910 298
804 678
472 391
643 685
625 650
104 549
220 727
2 542
331 508
276 542
407 622
704 385
453 849
343 801
199 701
97 724
774 494
351 75
207 214
635 545
502 406
199 440
698 361
460 601
538 805
560 736
44 94
616 359
615 273
872 653
229 691
530 43
623 177
112 6
37 388
737 387
744 27
131 703
923 120
652 809
519 883
925 522
834 132
342 612
400 155
70 66
348 411
668 698
171 498
100 468
691 117
323 888
604 287
470 826
92 766
327 58
826 759
928 708
868 366
484 397
600 622
413 919
453 707
470 616
491 888
695 894
224 361
85 835
420 912
518 624
117 856
371 21
649 364
114 247
324 485
309 924
310 741
629 35
351 411
616 40
894 867
427 443
728 780
86 683
689 372
662 3
892 103
544 895
118 603
874 237
468 788
378 835
235 515
895 250
580 678
606 700
644 844
738 35
52 587
595 205
825 383
543 149
818 75
489 29
823 510
327 373
671 719
681 916
494 158
702 359
558 306
742 576
429 624
818 218
692 349
351 696
69 84
556 452
750 79
915 579
535 748
412 321
490 484
871 166
834 561
172 168
890 15
763 698
108 814
824 519
254 35
255 435
882 261
487 913
22 719
520 234
312 47
337 309
210 61
872 200
193 454
153 620
634 322
71 477
695 888
611 719
172 385
95 498
448 335
48 708
411 440
486 353
153 927
824 750
73 137
897 36
518 25
494 730
8 797
547 814
351 642
382 366
28 250
432 280
514 689
608 641
401 389
184 647
780 268
737 406
422 584
881 837
397 683
615 571
686 473
796 700
821 318
508 557
750 193
53 287
915 108
883 835
646 630
632 299
273 413
181 480
158 812
875 810
680 300
275 455
900 143
42 298
904 74
405 584
337 191
10 367
191 566
340 522
572 531
896 799
308 133
745 94
256 488
466 664
77 309
259 430
99 837
741 169
870 498
193 761
306 312
571 857
643 308
681 137
679 434
38 318
259 616
512 489
245 202
852 870
46 462
545 586
712 678
839 168
733 16
629 222
845 856
8 439
224 678
501 438
600 475
874 138
786 561
507 781
549 430
369 426
2 246
442 497
115 738
524 855
173 383
449 321
232 111
427 123
699 467
627 358
773 326
426 51
923 275
140 402
379 113
658 83
879 393
310 299
702 690
369 590
915 665
707 367
263 366
212 12
168 437
815 418
658 281
691 363
295 99
273 921
432 211
737 110
739 862
332 280
388 26
637 653
781 232
892 749
95 594
518 417
157 379
756 855
330 374
816 202
262 829
377 165
270 743
362 780
588 499
551 260
310 228
661 836
646 215
705 521
464 377
652 234
671 213
86 607
541 239
161 345
548 829
512 503
571 282
755 553
883 540
38 296
847 514
901 43
704 249
553 188
742 353
104 211
253 517
914 371
572 928
909 850
441 520
868 788
809 40
800 540
764 837
322 285
724 666
680 257
679 379
547 760
460 880
816 193
923 679
581 372
690 742
618 859
432 250
379 158
624 788
215 780
878 802
75 204
577 130
225 533
595 658
670 690
413 297
513 208
219 588
73 585
93 480
86 928
594 912
225 211
395 564
245 417
174 867
93 642
929 843
508 614
322 204
238 817
739 259
118 283
64 718
484 463
821 363
233 201
430 280
469 542
288 521
273 259
516 345
421 280
22 134
596 901
61 356
370 26
765 913
272 522
734 149
886 68
882 719
403 391
39 614
206 466
903 408
579 565
466 391
273 57
750 704
307 406
38 346
684 521
187 35
461 640
669 604
432 394
656 575
625 744
163 10
328 640
183 744
845 165
96 103
314 930
171 631
632 771
706 22
428 427
781 19
291 708
915 843
199 642
672 186
242 640
44 577
354 188
854 241
639 613
86 367
225 392
475 274
273 66
112 443
593 438
259 499
702 212
423 700
852 463
638 909
299 539
894 283
329 379
699 340
257 185
55 874
849 138
263 561
464 765
151 427
781 187
910 492
418 832
788 550
382 389
537 482
663 187
556 604
705 830
595 587
634 754
670 492
156 575
676 372
824 423
734 675
22 623
276 798
120 814
830 330
46 719
898 372
450 706
647 543
569 469
109 650
720 594
93 752
363 123
904 430
134 487
101 197
193 885
736 298
841 214
450 629
587 28
620 495
236 531
679 580
422 402
153 526
278 872
170 438
818 373
142 552
567 850
751 236
627 50
261 9
721 412
55 291
556 434
746 518
928 18
31 497
915 674
290 342
376 454
24 321
216 333
310 413
428 552
782 92
140 687
469 367
235 164
218 244
753 551
240 41
243 228
871 174
104 830
284 495
875 385
654 896
915 439
326 908
112 568
757 877
261 835
98 177
742 260
562 333
745 59
249 190
599 383
428 108
929 855
569 850
894 809
660 180
915 420
864 402
96 433
758 731
688 149
466 329
48 308
582 364
214 129
549 663
491 339
885 846
334 752
928 232
626 576
45 206
581 337
47 158
30 162
285 251
97 116
665 564
351 884
661 506
236 606
340 864
672 413
174 200
929 436
659 536
713 768
273 198
93 477
555 414
628 248
322 413
44 775
395 389
869 242
317 789
321 111
178 560
125 653
242 427
200 43
631 754
7 489
905 666
672 182
691 722
526 330
340 473
376 727
78 412
453 70
533 865
54 497
332 784
629 477
157 693
24 97
482 102
449 265
431 196
272 152
806 463
220 169
183 703
702 268
897 383
134 797
413 617
216 16
861 928
8 594
706 194
350 188
821 819
489 826
295 474
4 234
25 18
99 55
598 496
435 865
469 708
696 72
400 538
611 199
884 741
261 924
595 161
506 120
464 434
304 433
76 197
322 509
794 486
70 775
88 888
610 91
555 639
772 15
556 793
150 208
334 365
273 721
300 402
446 522
574 532
786 479
721 932
785 101
80 369
779 874
135 149
231 812
842 403
547 226
240 375
107 760
871 53
636 698
126 280
310 912
278 920
715 880
493 161
789 660
611 817
260 744
669 190
855 360
396 342
925 851
165 26
866 802
774 557
483 922
523 876
572 791
618 617
711 873
31 188
249 651
430 402
833 412
864 463
183 476
106 589
732 856
632 709
445 757
670 427
636 708
804 889
824 23
255 20
720 782
684 796
494 599
321 657
892 382
341 480
549 651
159 740
256 269
176 731
186 9
596 618
279 341
154 555
524 90
395 888
451 103
513 683
105 924
883 565
233 825
206 266
473 321
45 557
905 468
11 808
230 444
489 511
452 347
109 91
110 283
809 701
719 641
698 621
24 66
62 211
153 679
731 221
622 540
890 102
330 747
739 758
520 844
611 704
661 402
657 391
465 414
216 665
360 542
141 252
513 819
175 186
17 413
204 458
547 57
89 497
181 283
555 41
723 165
109 445
84 747
31 162
786 690
567 876
804 98
73 504
54 138
239 784
772 318
332 501
483 793
338 12
794 40
840 816
512 430
507 889
750 167
307 226
695 866
863 561
332 324
171 123
674 712
47 211
672 835
720 108
269 228
289 212
736 924
291 216
439 496
346 736
208 447
560 361
392 203
357 583
357 18
834 509
214 46
108 613
505 66
263 114
682 353
524 577
355 561
118 127
210 500
748 226
894 129
622 10
201 865
661 598
611 279
331 809
423 120
723 27
544 903
173 693
136 809
428 799
719 877
142 736
100 356
515 359
807 214
276 878
758 190
186 722
541 732
197 359
706 345
307 592
17 477
897 59
576 827
274 913
732 522
927 573
192 837
315 116
64 199
822 522
713 838
218 172
864 380
256 385
420 266
168 888
387 12
903 463
245 192
887 305
634 791
867 36
818 165
325 749
107 893
309 542
146 464
844 63
222 383
921 545
99 496
209 173
321 641
126 688
804 298
490 197
52 930
608 277
148 259
97 759
774 28
863 110
229 718
62 531
547 658
624 736
732 65
240 447
309 511
734 190
220 365
774 785
161 783
99 174
793 497
192 257
76 252
655 856
713 308
605 179
488 712
219 47
147 442
424 554
574 349
795 557
745 834
119 117
334 861
160 575
932 754
490 736
411 626
348 51
665 247
22 771
631 222
289 731
549 18
787 594
457 805
607 763
672 384
371 67
153 436
834 802
524 157
746 576
780 700
891 553
529 238
141 224
181 462
720 197
520 418
484 33
834 286
672 109
320 619
288 846
519 604
388 116
264 613
56 888
635 342
176 780
393 282
765 700
452 540
174 318
1 343
755 516
78 395
351 15
334 461
135 228
227 377
622 341
822 294
509 462
882 190
470 481
369 687
44 597
869 388
745 315
854 312
838 678
892 861
47 845
115 536
387 681
273 572
686 821
293 875
787 727
530 437
144 402
899 760
327 547
537 208
696 464
2 153
775 887
582 868
193 891
893 650
750 877
146 452
54 804
660 711
147 313
609 742
258 204
131 102
80 654
618 163
798 120
841 333
668 495
328 408
112 319
768 477
404 319
267 666
45 853
672 689
563 358
655 509
288 261
561 516
770 194
71 924
737 925
772 928
167 232
525 708
617 333
411 666
6 650
693 437
98 747
56 91
606 196
900 263
276 43
370 186
723 79
355 444
782 867
815 129
753 721
455 66
681 711
205 886
150 258
703 232
869 37
209 604
753 149
598 908
709 826
128 743
853 740
724 349
921 891
868 312
303 111
268 3
423 543
716 866
551 309
331 350
758 780
590 666
61 693
219 580
438 701
864 836
177 678
631 888
691 298
563 703
485 196
551 460
261 464
520 181
493 465
78 365
44 248
62 572
332 735
607 717
268 542
145 237
512 561
55 408
76 374
370 458
704 406
654 270
337 870
267 168
752 643
931 129
769 46
255 186
240 60
256 817
518 500
596 425
262 694
176 857
176 238
233 408
413 314
126 536
362 649
713 829
381 742
898 637
330 478
868 691
408 316
64 686
709 519
337 920
178 81
513 495
769 456
848 335
150 74
173 714
526 712
448 247
497 780
505 394
378 888
752 496
400 421
199 47
146 185
807 225
737 250
630 780
848 803
98 222
44 569
9 188
448 870
526 571
655 456
824 738
491 501
309 358
697 885
592 280
810 700
80 7
705 386
37 925
46 394
637 498
90 416
384 397
883 46
77 742
192 656
853 432
185 472
375 498
748 744
325 322
343 374
112 318
183 761
4 903
278 728
32 352
518 836
672 366
52 350
569 364
753 511
918 11
130 406
59 292
577 252
423 732
136 486
853 658
146 374
733 722
845 877
629 123
774 299
62 776
871 297
652 534
468 637
234 430
914 316
230 112
737 477
849 560
44 777
336 466
779 269
263 724
863 773
17 380
822 214
395 117
261 473
131 500
520 170
95 410
705 370
852 586
779 410
618 347
231 202
422 530
343 908
596 569
474 194
241 657
295 873
829 358
206 444
647 366
815 680
136 546
138 497
375 483
822 927
582 833
425 757
470 111
464 25
807 473
368 673
371 534
137 703
658 275
806 398
32 829
357 364
694 117
436 877
881 485
431 757
20 409
723 573
355 631
64 888
85 578
183 571
838 414
490 879
127 724
769 467
399 136
384 895
369 858
918 764
61 868
890 770
561 486
29 454
639 651
288 192
658 835
915 691
456 759
439 406
660 126
668 630
390 574
337 834
871 435
451 572
360 690
470 102
1 778
38 657
647 585
702 760
591 698
834 320
559 374
61 837
603 216
35 631
883 462
2 522
811 503
284 740
852 166
652 11
32 510
215 169
417 478
108 246
769 927
883 776
44 219
601 856
307 487
656 477
842 47
54 467
275 825
513 438
556 318
390 892
44 541
299 498
890 134
841 90
71 213
399 504
847 562
221 744
371 735
189 788
341 459
709 430
210 430
533 47
659 556
659 227
125 825
790 508
307 889
407 932
526 881
709 63
177 102
839 282
470 347
373 498
54 337
245 480
332 710
386 97
706 566
528 885
819 461
271 613
914 916
240 199
206 509
558 287
672 703
673 631
800 121
547 503
910 697
756 275
47 812
327 281
112 470
130 237
352 624
1 660
772 539
706 162
572 744
927 480
572 392
840 111
245 533
70 339
737 643
136 347
205 3
830 67
885 673
822 563
64 664
481 287
303 193
655 28
270 908
288 555
384 287
627 589
131 464
59 927
648 283
425 51
138 198
248 287
410 114
840 739
794 161
219 750
94 233
521 835
557 5
481 913
906 783
192 294
907 90
124 801
140 587
107 437
328 294
310 330
221 165
78 139
540 114
224 616
923 788
376 50
820 181
608 373
471 488
868 350
96 739
276 234
99 476
320 415
45 488
638 153
432 920
17 337
627 415
398 246
93 337
486 74
920 178
758 534
284 887
545 859
871 728
530 708
667 19
897 403
37 885
59 350
313 766
170 861
118 202
616 805
856 287
300 601
78 138
574 722
777 244
112 63
525 209
293 198
488 133
60 311
559 901
686 461
724 640
265 426
344 158
330 430
732 883
471 556
648 720
579 221
847 15
715 464
786 706
107 712
531 487
551 838
331 637
742 283
634 126
615 176
507 326
191 514
878 308
195 368
838 12
92 783
290 805
643 14
58 562
207 546
370 723
649 238
795 347
172 27
100 584
502 319
88 603
549 781
15 42
195 59
592 598
702 671
370 156
885 208
707 663
579 336
599 781
879 107
381 927
369 236
369 231
906 710
228 302
686 811
124 533
106 120
569 315
732 257
194 880
490 480
818 739
629 844
210 903
648 344
408 234
807 383
289 488
485 415
732 542
396 635
401 877
734 180
147 689
38 788
79 554
44 69
192 838
135 414
9 717
157 354
639 919
470 412
201 664
492 316
475 412
886 730
189 508
82 876
853 384
123 687
622 473
533 896
166 20
900 908
812 542
264 711
154 874
764 653
804 926
87 626
627 823
705 331
86 228
8 1
500 799
375 200
921 876
414 459
327 798
769 691
164 282
681 305
720 207
21 107
890 907
760 576
559 432
427 275
230 462
529 306
216 542
746 697
841 718
110 784
57 319
348 458
205 516
98 11
901 36
270 810
269 445
363 117
169 678
577 479
171 825
449 726
195 557
235 744
894 724
526 346
348 163
260 542
352 369
352 166
295 229
101 666
289 575
815 91
673 298
801 477
824 704
494 249
833 113
916 333
811 586
44 929
171 254
815 244
11 767
265 16
229 740
513 196
833 561
418 727
878 588
94 522
774 664
40 902
335 142
465 639
835 292
47 463
596 552
380 415
59 527
425 136
832 856
651 316
118 637
555 282
32 38
306 198
824 397
753 473
290 313
879 105
386 741
900 692
545 208
45 246
600 662
238 908
359 640
777 932
215 202
291 247
240 733
242 740
441 812
585 105
23 480
101 532
681 702
103 74
489 727
860 761
165 476
740 620
648 557
64 149
689 316
623 395
671 356
710 380
901 889
822 858
589 656
254 534
148 893
441 526
131 878
578 473
615 124
818 917
868 704
431 624
875 411
436 621
17 306
54 281
755 841
186 84
258 681
580 687
390 426
10 404
653 496
639 625
655 508
658 48
894 593
128 656
861 130
230 581
548 604
756 421
538 784
833 896
655 417
870 485
249 874
326 922
290 105
680 236
789 470
737 13
293 236
369 43
725 702
673 467
698 461
899 196
884 526
304 666
885 665
483 802
105 722
671 616
284 475
618 817
685 353
325 527
523 732
71 775
826 361
636 374
439 436
224 902
8 851
861 743
887 463
617 164
765 455
674 165
504 356
307 408
860 19
530 835
932 893
862 364
592 299
538 174
900 585
188 318
408 391
668 112
872 673
809 20
674 363
547 542
579 923
531 312
57 347
420 153
37 917
667 87
512 494
900 859
635 642
139 461
564 251
869 693
567 261
386 724
155 190
220 43
496 169
422 234
528 123
807 81
633 326
923 518
798 406
357 846
926 188
32 75
31 13
658 403
770 367
864 126
313 877
189 560
279 292
338 288
212 919
351 341
379 174
894 398
643 823
923 912
419 500
603 714
25 640
686 410
926 560
322 527
840 70
431 606
310 309
753 693
494 881
464 836
104 278
80 649
930 500
14 845
17 321
644 314
193 564
721 409
262 315
726 417
771 698
86 245
145 930
453 420
291 345
60 875
829 339
78 51
83 517
887 477
337 862
448 871
178 730
731 394
358 162
329 862
839 802
146 201
884 239
423 477
817 480
790 798
103 110
124 292
177 838
13 298
101 489
450 203
239 414
516 932
192 389
134 35
745 509
419 697
432 442
118 796
508 397
569 181
74 637
794 546
307 144
39 297
39 161
816 272
48 234
320 854
340 469
739 672
882 218
256 657
403 47
377 539
479 311
284 33
124 775
255 398
732 51
152 521
19 434
789 751
60 286
596 117
483 567
598 282
386 458
216 922
89 435
530 90
750 731
278 43
697 384
869 863
457 318
105 476
457 644
259 701
296 689
818 803
355 625
559 783
284 24
323 664
198 434
676 553
783 747
846 356
369 747
833 241
597 835
544 290
908 383
782 186
821 485
753 369
263 192
574 743
884 78
189 912
405 211
775 436
573 902
29 711
777 784
767 107
507 120
768 142
527 36
897 123
256 109
257 625
812 114
171 378
248 808
559 360
800 135
600 375
387 199
927 500
44 395
569 675
806 656
128 87
44 67
77 76
902 391
220 299
834 585
663 803
469 584
713 604
694 558
398 588
57 480
609 531
224 389
873 922
207 649
777 434
669 313
834 165
581 2
824 859
177 452
684 789
879 152
147 211
261 913
96 590
265 383
509 117
609 810
505 832
881 268
240 404
405 402
688 817
141 223
765 754
587 766
769 442
364 250
255 133
848 226
59 710
8 489
82 733
101 79
284 673
320 631
547 294
602 586
34 35
559 849
555 294
748 251
320 698
829 177
577 408
425 667
615 704
541 765
145 553
211 880
465 503
70 191
326 213
163 757
720 673
384 742
739 233
794 139
906 343
469 90
907 754
914 570
379 540
159 711
659 702
8 642
109 801
183 336
558 261
189 478
284 838
870 426
692 430
875 374
745 258
184 194
457 703
97 810
633 840
188 908
682 473
615 450
853 339
100 893
766 417
507 190
399 153
455 12
576 877
24 891
474 501
332 345
613 237
905 247
357 729
863 362
195 412
433 185
753 717
721 710
695 902
276 398
778 308
171 167
814 650
29 722
85 437
88 497
900 469
220 246
132 542
388 377
427 564
335 227
303 910
696 576
470 480
755 95
241 40
387 705
170 484
154 791
763 748
484 79
360 906
464 5
242 10
660 74
491 570
772 908
114 252
663 666
375 816
195 821
763 579
259 364
874 36
175 876
604 434
119 517
382 730
381 434
772 531
824 238
422 412
261 908
606 573
134 885
745 665
675 895
103 510
54 242
900 139
491 462
558 228
699 223
790 65
600 702
64 376
72 812
549 294
492 359
807 333
622 657
497 447
633 858
45 700
411 318
586 281
491 236
806 208
255 576
419 741
629 270
205 321
581 474
78 426
705 342
243 273
681 879
914 113
680 116
53 926
662 361
921 827
886 744
741 736
571 781
745 658
905 318
104 176
782 637
252 472
179 552
431 908
718 639
442 641
146 859
145 531
872 736
446 573
608 170
167 604
649 654
223 222
297 275
633 150
279 135
839 621
914 639
487 687
17 156
765 33
311 683
22 698
61 896
911 765
791 133
840 530
451 198
713 191
641 394
456 838
915 138
456 208
425 402
450 117
248 759
909 291
175 436
416 664
822 645
631 791
699 656
209 25
874 759
800 254
529 464
625 575
567 696
307 875
804 107
774 669
889 773
483 106
145 359
86 784
760 234
400 739
824 46
271 902
715 897
611 358
724 760
205 190
260 226
885 812
549 346
907 845
716 405
306 173
702 930
625 924
691 799
847 899
206 498
23 776
423 743
262 149
264 372
139 832
602 165
396 446
697 79
387 395
609 416
638 288
585 180
453 729
470 859
765 90
642 926
256 562
130 920
518 318
4 269
695 28
614 313
709 885
211 374
512 585
568 640
670 115
399 527
1 244
220 504
352 379
189 530
151 479
373 864
400 858
160 461
694 272
200 116
291 200
824 353
610 845
495 616
189 174
44 61
562 552
210 341
854 415
602 281
841 717
93 402
638 53
574 801
558 268
886 620
597 503
64 333
600 348
229 573
195 72
341 169
634 638
507 708
56 898
107 575
441 515
386 385
543 331
905 547
821 217
96 205
901 216
798 458
709 346
411 395
621 744
713 338
931 231
753 432
233 247
147 702
240 330
370 311
685 675
509 198
82 94
64 469
419 726
428 736
344 16
112 92
882 103
772 218
242 893
663 917
815 786
151 15
338 95
854 604
563 682
911 443
750 872
618 735
809 640
911 693
593 361
168 733
99 557
38 181
419 765
525 346
709 13
175 362
924 282
434 912
328 40
71 784
517 664
276 773
229 766
569 523
615 454
340 458
702 809
789 155
131 801
670 220
828 63
285 311
88 109
441 136
769 153
493 436
869 169
669 583
377 542
193 692
52 469
16 222
841 584
774 649
242 682
646 931
774 116
98 397
813 455
212 498
156 557
432 110
731 9
105 216
81 41
224 347
386 403
207 599
81 476
815 729
781 793
11 34
284 220
821 268
691 194
513 164
453 14
734 348
806 121
615 736
591 359
258 601
423 305
740 757
633 405
337 48
134 826
148 223
676 234
785 840
195 33
866 530
632 219
210 571
20 402
82 849
798 683
32 907
604 129
217 385
453 288
329 223
19 631
115 714
822 206
595 11
615 681
62 571
139 586
733 318
53 481
735 133
441 281
370 465
852 92
428 241
356 534
290 712
748 657
752 339
128 616
320 83
493 96
690 623
602 128
32 728
582 470
1 836
473 903
57 346
261 182
55 878
696 329
143 721
173 9
301 84
128 749
159 385
881 517
860 895
718 874
262 321
764 681
906 827
104 447
821 393
435 57
656 391
772 408
131 272
186 656
124 504
7 23
338 289
49 911
709 318
38 576
547 98
755 406
568 530
822 826
535 683
330 333
464 353
321 232
855 288
261 708
710 621
182 796
457 838
478 825
166 814
170 31
118 203
320 416
834 530
910 499
17 640
331 197
110 216
40 575
368 412
276 381
531 247
86 757
834 748
853 294
581 609
216 683
729 803
767 480
344 778
842 9
53 499
861 294
535 510
104 144
628 717
336 4
915 932
672 19
104 316
839 89
752 321
401 440
474 158
466 497
30 708
563 171
285 283
893 102
800 497
253 391
164 873
471 639
840 574
439 534
595 433
668 265
101 408
248 714
229 569
214 873
470 136
605 24
134 708
85 430
854 825
894 194
214 728
703 440
235 709
35 416
813 314
571 594
124 735
93 329
148 485
381 693
578 445
277 15
119 622
688 311
671 34
638 414
425 845
526 182
296 251
631 799
93 710
357 590
630 377
153 222
134 221
869 304
330 152
102 203
673 13
583 518
360 768
195 788
677 589
205 432
259 292
634 187
737 467
702 144
153 532
134 27
852 335
636 140
322 196
819 574
713 7
605 422
327 526
257 57
705 368
834 766
373 226
790 21
230 254
654 315
658 509
288 624
777 220
129 554
439 838
278 31
607 861
303 535
265 58
88 627
798 789
930 316
659 358
210 272
166 319
716 202
703 666
721 305
171 192
176 832
340 872
70 923
400 888
891 402
628 251
511 463
648 409
399 908
524 398
49 668
928 180
103 236
34 926
820 691
695 343
842 542
183 180
722 799
332 866
60 116
787 576
796 926
300 555
800 585
122 880
711 232
289 641
327 841
716 57
101 759
243 445
634 787
524 794
136 555
764 233
745 496
195 318
218 197
218 574
220 225
594 865
4 149
633 725
596 463
923 476
563 190
912 817
841 123
362 747
716 526
272 767
520 421
789 609
798 753
561 372
899 235
746 373
390 338
582 663
120 858
696 396
769 886
789 364
175 385
386 735
913 447
368 650
491 641
263 117
528 138
658 16
343 924
804 402
109 324
602 464
756 96
756 733
655 20
851 268
851 835
304 879
873 799
124 813
841 147
548 737
471 103
788 283
147 405
699 192
699 631
259 514
6 168
263 742
711 877
6 731
823 180
529 90
183 686
534 754
774 173
151 76
293 639
745 19
194 827
284 61
31 522
107 810
128 864
915 444
535 810
517 16
352 142
596 180
337 350
451 50
104 639
134 464
29 470
862 867
413 460
253 66
110 157
553 708
861 259
410 306
153 726
80 402
852 30
432 368
157 404
340 250
550 43
551 187
348 631
535 733
138 624
520 106
774 277
80 220
427 567
228 791
565 688
507 546
143 801
872 395
860 363
154 705
914 9
187 414
449 53
277 74
241 509
355 176
908 650
727 454
2 578
70 174
67 859
271 406
123 616
792 679
117 859
887 438
816 712
85 637
595 443
31 364
859 298
381 546
611 80
705 704
254 374
851 84
375 166
134 773
781 683
84 877
839 373
217 926
570 922
360 391
442 630
740 539
565 333
559 764
192 454
377 736
559 493
658 329
640 708
864 359
734 740
680 315
555 268
771 394
39 706
777 794
632 830
851 178
330 102
581 426
368 160
818 866
767 501
748 665
593 597
790 677
348 328
680 222
704 464
667 708
721 343
638 420
635 102
680 4
917 814
557 710
115 28
443 699
481 364
82 888
713 365
930 114
913 500
142 283
633 114
402 678
276 326
131 6
824 38
886 907
462 41
778 333
599 274
50 919
217 459
528 608
793 530
369 893
370 69
150 474
725 488
29 523
176 65
709 185
728 619
325 538
331 270
18 747
481 349
861 366
147 444
349 651
519 424
443 579
466 429
303 504
711 90
217 895
511 613
682 364
538 233
618 412
830 491
647 723
652 516
743 16
600 290
908 43
712 700
910 259
887 576
897 193
627 126
403 319
170 478
34 565
48 719
373 411
715 196
327 186
245 820
686 148
608 273
493 241
404 700
756 649
903 554
317 14
851 759
449 768
800 477
655 410
549 675
750 491
860 50
664 402
900 19
187 405
794 247
614 476
210 347
304 343
638 107
72 392
325 73
692 194
38 315
39 395
740 20
154 249
136 836
751 767
105 539
72 653
548 454
842 298
915 112
519 760
739 491
751 511
317 406
175 658
531 653
767 554
34 26
842 886
592 178
648 687
872 870
491 527
106 496
277 731
751 480
680 447
534 27
646 217
151 128
7 74
468 4
86 447
632 233
128 97
458 927
807 629
849 169
208 319
705 23
686 484
581 754
927 463
822 846
89 378
822 228
364 196
184 237
771 851
739 861
594 383
595 119
44 279
928 870
871 279
928 252
929 226
910 444
441 717
17 807
220 496
442 467
739 353
189 554
596 859
339 111
85 36
88 301
307 22
92 333
273 429
558 43
884 721
168 730
78 125
585 465
905 365
544 59
907 113
286 437
77 346
751 350
275 836
790 560
293 932
439 706
599 794
928 132
450 367
195 647
676 447
622 102
548 897
491 51
456 495
503 287
899 216
684 244
723 51
281 196
153 575
676 270
752 471
734 886
649 898
535 558
455 133
97 201
152 268
388 405
706 440
467 500
854 224
506 665
204 626
676 157
427 542
753 424
143 653
146 227
602 851
96 180
625 319
371 391
121 744
233 560
120 232
549 378
17 461
661 518
776 133
622 880
724 315
137 186
709 100
329 642
707 292
572 375
131 13
439 247
170 434
263 413
134 212
670 511
40 463
464 770
106 90
270 835
329 531
614 178
559 472
45 237
244 762
303 99
175 105
659 324
842 108
860 904
464 372
800 163
674 366
929 513
253 507
436 653
848 97
437 687
556 142
901 16
774 731
868 197
132 345
512 68
253 758
107 858
325 207
220 778
24 294
78 802
523 172
466 353

902 4937
340 442
804 329
678 333
401 572
124 562
517 902
614 255
91 895
873 342
795 748
354 628
702 862
799 891
339 2
426 862
395 507
586 1
822 422
751 260
643 391
454 337
555 537
857 581
518 581
61 635
816 75
779 81
231 865
430 798
150 479
308 20
127 880
864 274
275 270
619 329
560 64
78 800
524 94
743 42
824 781
491 717
379 175
643 750
778 144
183 83
331 106
774 426
482 792
64 20
62 547
813 826
673 784
541 387
196 625
363 413
308 298
715 858
475 145
387 189
395 107
335 901
799 864
230 272
654 470
569 464
880 400
623 568
292 584
813 836
171 265
795 268
47 134
68 677
213 297
858 453
104 456
586 155
622 640
865 64
668 56
520 613
614 816
834 634
894 378
581 735
343 602
839 129
622 627
58 707
807 269
221 426
891 378
521 636
539 77
154 423
427 762
827 753
70 629
855 1
733 271
697 342
509 581
883 734
898 666
370 823
48 376
689 124
545 471
176 9
658 863
692 223
1 495
770 279
185 480
66 502
593 630
632 130
467 792
795 745
691 554
604 740
322 91
126 518
380 325
454 9
457 315
894 622
324 719
22 845
385 791
833 794
578 392
688 3
779 265
392 21
262 105
691 14
467 187
86 147
566 36
566 617
92 513
665 460
627 54
183 161
222 307
882 355
665 840
799 540
213 20
654 874
372 891
236 155
476 682
457 82
645 135
595 347
351 689
541 342
815 299
251 580
394 801
566 651
392 189
419 93
884 827
539 317
461 726
88 361
110 818
377 593
820 664
801 634
32 750
126 194
571 412
419 62
665 674
188 436
482 300
852 147
409 559
356 469
619 463
233 280
710 794
197 893
318 192
435 776
258 860
457 420
760 668
228 82
676 93
325 563
485 475
516 105
607 823
442 881
860 33
869 610
323 613
89 400
615 426
37 80
882 34
793 184
632 581
170 780
729 539
843 182
662 572
510 569
618 18
320 285
832 343
558 54
852 749
745 32
555 173
411 340
382 181
388 286
448 298
825 307
220 9
196 759
422 853
422 286
519 132
795 458
120 141
47 818
236 137
163 718
472 2
899 440
684 271
577 195
408 50
501 672
58 312
502 667
247 779
654 121
473 879
450 555
768 850
230 20
864 326
679 414
822 589
39 575
387 38
595 781
303 600
389 604
249 227
166 388
395 166
95 100
569 93
607 176
185 766
37 613
226 840
205 348
46 545
795 611
483 480
34 493
714 142
74 660
40 81
721 621
749 779
833 670
366 545
849 121
690 151
780 751
819 457
16 490
753 487
1 13
419 266
507 613
149 881
494 568
261 648
421 557
192 299
410 158
797 158
712 412
808 859
575 753
257 702
536 234
458 233
470 547
781 415
872 653
390 8
571 583
178 687
530 504
52 84
269 762
601 265
770 33
86 864
19 505
520 243
478 688
889 674
211 343
232 251
12 348
604 262
179 830
659 85
643 568
723 72
457 416
211 177
520 293
201 621
535 296
637 245
486 821
434 263
709 307
116 207
615 279
601 540
238 592
360 281
285 177
314 641
326 861
810 333
519 461
758 399
851 78
245 291
530 596
121 672
328 177
533 81
771 492
476 428
681 838
168 474
465 837
63 166
763 468
379 718
867 271
17 349
702 830
785 680
338 248
863 873
190 346
781 496
49 844
423 267
815 354
527 83
325 535
758 801
92 659
828 631
539 293
772 106
884 796
792 680
740 294
25 708
643 811
137 2
874 880
322 658
33 891
760 229
747 360
535 814
93 119
829 589
647 17
814 404
282 294
546 699
90 669
698 164
839 195
753 243
680 173
76 782
124 754
404 885
115 391
834 683
119 471
101 120
880 315
230 3
49 243
758 66
839 848
399 233
882 159
220 602
510 278
773 610
123 546
548 405
778 639
395 759
296 838
116 881
181 540
664 389
13 188
60 323
758 366
171 151
448 485
429 61
527 644
548 409
664 650
311 57
441 202
700 613
61 700
743 896
872 738
373 480
29 158
486 1
541 707
90 803
757 628
808 735
519 830
668 654
300 624
484 692
693 690
802 68
39 788
143 315
861 508
202 414
218 267
773 453
169 148
477 499
464 584
533 247
374 869
217 717
732 79
625 3
897 489
898 281
292 568
77 318
593 557
790 497
616 815
247 441
193 738
285 337
406 738
532 131
678 102
755 334
455 283
646 810
379 5
420 891
433 193
835 306
89 180
253 334
843 879
309 460
883 436
204 278
361 481
164 81
647 611
689 211
390 135
284 670
760 652
91 627
69 573
757 670
777 901
151 448
389 53
814 228
673 234
449 189
214 513
784 518
753 388
259 563
345 330
756 76
685 493
381 209
724 546
321 891
620 276
359 743
214 37
876 344
417 210
880 470
553 432
120 294
366 815
310 712
258 441
594 498
619 431
154 198
671 138
379 893
584 761
714 286
199 192
681 20
217 301
649 35
500 318
762 73
356 80
693 644
452 697
785 569
839 650
224 242
516 703
168 240
298 290
725 590
392 366
12 462
661 386
864 626
277 381
427 276
46 96
430 334
802 312
417 672
548 820
284 611
844 163
225 439
861 655
502 45
779 766
488 350
366 153
122 384
530 773
270 109
716 150
476 834
39 197
759 602
154 391
115 640
673 446
875 806
306 202
805 228
238 534
183 816
720 298
848 511
45 816
353 720
579 97
659 504
377 364
873 663
450 55
69 185
89 416
895 109
236 209
237 221
349 89
518 265
23 711
780 581
394 323
53 704
822 77
399 889
786 626
899 759
216 274
564 888
33 456
243 174
172 325
689 885
891 708
639 791
380 544
198 603
769 480
698 454
24 831
791 388
520 544
870 135
219 738
88 849
675 439
270 286
456 682
899 703
829 897
369 675
784 298
797 632
374 43
504 182
729 387
289 833
659 318
326 334
312 83
99 192
248 518
335 606
402 251
899 466
32 775
649 89
396 421
698 549
662 72
612 117
778 670
461 212
227 209
302 733
565 750
123 695
325 799
301 265
110 656
295 287
129 858
24 293
813 211
558 120
29 630
104 564
12 356
352 314
367 330
240 888
303 823
850 663
122 187
376 754
231 58
228 90
125 94
87 651
788 161
37 792
332 37
120 529
723 226
26 126
335 551
638 499
165 634
785 495
734 493
113 485
277 756
77 759
799 93
98 604
615 602
302 792
282 279
231 333
33 462
571 314
180 651
125 747
271 892
632 641
552 557
618 222
167 624
655 234
168 321
869 161
281 213
853 274
452 669
531 95
660 471
474 686
606 655
365 333
113 188
593 364
614 609
353 674
447 337
156 597
512 11
768 880
363 308
454 568
419 496
789 266
538 173
389 707
776 37
31 205
335 556
229 489
128 301
216 697
401 715
572 521
370 740
455 391
509 713
889 763
673 489
30 101
354 728
141 489
216 675
551 456
555 883
169 647
630 579
187 400
170 421
870 615
215 387
466 751
656 579
617 448
290 148
808 575
254 662
844 421
140 13
258 77
352 272
481 713
562 626
797 398
871 395
305 539
747 787
107 557
716 290
491 650
274 278
87 265
114 544
463 894
220 608
118 414
505 172
250 546
433 66
144 822
622 641
753 291
305 40
344 701
478 153
799 561
444 25
136 730
320 23
121 874
217 619
86 804
122 634
246 82
196 677
558 251
227 744
817 504
305 854
583 383
198 470
236 157
19 321
369 748
127 471
170 319
173 68
232 813
808 512
193 858
394 490
14 569
254 744
524 720
293 51
441 845
44 895
418 858
481 230
762 337
503 27
51 65
566 511
213 460
647 719
231 596
111 27
60 580
596 291
847 76
599 381
875 284
341 93
141 80
199 147
734 81
225 852
44 669
225 797
372 239
246 426
799 543
820 493
342 436
435 508
312 135
113 167
756 21
208 483
280 421
834 193
29 715
318 339
430 193
430 634
108 529
677 309
210 456
627 224
275 695
773 866
78 168
760 628
174 202
858 1
567 508
643 266
240 488
653 443
520 64
591 801
523 122
523 513
599 660
250 234
336 652
10 13
53 189
701 572
832 192
795 500
374 150
375 796
631 193
767 815
73 252
413 533
679 275
685 563
119 283
174 681
751 11
693 621
159 321
895 60
181 313
329 384
457 347
771 579
846 5
667 504
741 337
336 131
672 402
671 186
86 654
620 722
622 97
587 1
272 309
716 478
658 568
684 746
579 677
39 579
175 182
802 38
472 701
313 84
875 864
17 420
359 629
510 244
496 200
477 42
774 180
815 796
674 719
834 902
667 210
513 810
878 866
310 63
139 651
78 11
390 562
338 259
675 640
824 763
684 768
649 880
898 97
899 763
313 301
795 668
597 683
528 537
27 36
86 641
86 74
158 455
416 34
605 240
91 61
192 496
57 816
208 680
49 556
281 581
337 608
895 518
841 439
582 155
328 680
438 519
347 70
612 771
360 415
833 192
264 197
446 301
143 343
430 107
676 327
218 404
491 734
703 352
176 772
685 90
498 644
851 270
372 800
47 636
138 824
395 698
431 669
452 886
139 768
236 16
290 751
420 642
112 467
694 75
41 6
36 648
544 769
635 887
41 837
138 126
565 693
358 806
785 797
474 438
455 120
206 568
277 222
596 650
31 593
338 689
302 533
105 370
276 833
256 156
684 802
530 240
367 717
99 620
760 690
738 663
176 54
836 741
685 490
104 395
505 435
69 774
15 426
698 642
698 311
240 251
594 806
331 148
386 236
741 182
296 637
373 364
410 595
638 77
803 408
273 712
847 629
113 582
717 141
829 563
900 561
769 7
118 111
709 600
692 509
783 413
215 672
164 694
145 556
536 865
455 779
350 402
594 471
651 486
844 425
638 815
841 180
306 633
841 527
39 488
862 9
664 16
494 600
276 651
587 376
522 751
550 75
567 112
177 492
125 430
694 892
53 108
401 507
661 60
422 403
29 680
708 840
514 610
522 738
349 599
150 552
544 893
245 299
589 26
85 300
470 590
840 453
217 553
749 320
595 824
809 672
55 205
422 680
591 770
832 889
256 637
463 222
565 227
434 423
890 180
842 398
382 479
221 408
167 561
714 332
152 299
522 662
227 100
742 65
467 469
871 724
583 771
487 117
739 550
113 690
326 646
20 821
681 54
884 180
886 848
808 504
109 446
130 837
274 350
38 271
586 669
22 53
772 518
387 728
371 695
542 314
322 137
322 626
269 398
641 80
808 704
128 13
359 203
476 419
791 521
819 82
27 542
356 504
449 10
430 20
783 165
413 108
676 638
880 135
58 504
294 489
96 608
833 633
481 76
541 147
118 795
372 321
29 447
361 73
329 477
199 574
898 278
241 246
739 627
224 863
406 774
614 475
775 395
118 193
653 149
233 460
765 315
882 283
201 667
433 629
828 413
313 773
795 594
396 387
845 648
616 490
615 402
29 811
763 688
401 447
514 547
302 674
218 337
839 726
813 50
765 532
143 103
494 273
206 50
727 165
732 208
17 138
607 293
60 715
848 258
291 711
422 254
43 759
688 347
45 135
375 207
374 893
341 390
877 649
474 2
550 655
363 203
520 441
129 50
95 309
389 464
444 875
726 342
805 255
325 40
711 518
750 551
808 831
456 404
440 889
449 826
844 831
349 663
585 493
831 855
870 758
172 157
725 209
874 182
729 585
783 58
324 352
415 252
784 840
367 279
385 492
441 767
540 202
232 323
449 4
596 862
250 735
398 294
678 284
753 562
232 409
504 350
380 753
453 16
879 281
203 482
612 497
705 561
172 77
601 431
585 670
506 260
784 399
394 155
199 886
366 600
682 348
41 551
772 862
201 776
797 242
47 450
31 132
745 318
414 674
308 792
679 569
289 241
591 427
884 423
526 874
463 583
211 205
874 631
801 352
451 273
696 725
367 468
109 534
627 562
114 22
421 746
574 416
761 612
479 489
83 391
620 627
52 224
290 224
255 141
517 501
386 665
813 249
775 604
320 552
835 787
582 900
756 471
697 529
368 863
700 253
538 701
331 661
553 896
282 841
797 23
402 640
750 672
199 177
366 628
55 710
352 669
208 199
485 188
543 230
409 23
170 671
829 470
787 263
787 186
205 611
863 495
661 269
600 448
196 453
405 612
597 223
465 502
818 732
853 752
524 209
254 359
736 482
454 357
899 755
420 477
169 589
483 534
248 188
814 71
483 625
106 166
88 421
235 771
678 131
664 750
274 701
566 802
538 203
152 556
743 619
136 891
85 210
676 416
393 521
18 237
734 122
440 306
349 371
442 87
435 20
113 71
637 853
781 592
778 316
710 131
635 268
553 172
418 377
275 557
809 210
35 188
442 397
25 355
170 323
675 106
390 613
255 631
570 800
874 392
374 857
832 287
471 764
275 666
203 393
166 672
371 398
478 598
419 188
203 152
800 752
32 708
507 200
386 436
716 444
699 771
664 287
893 142
448 81
632 659
169 59
887 426
229 523
216 817
783 30
129 105
24 782
26 754
888 2
466 792
138 375
199 605
823 441
53 857
257 67
168 237
204 846
405 187
431 192
872 604
789 724
379 614
692 512
822 420
736 843
517 792
790 616
832 899
596 100
898 741
66 465
11 173
654 11
379 26
605 551
198 135
435 211
898 96
661 534
166 810
882 93
302 232
45 390
546 736
503 181
583 240
405 88
273 794
553 37
361 25
573 485
95 426
351 97
84 89
674 73
290 752
514 863
879 798
881 222
476 259
267 771
452 881
361 895
667 529
666 233
193 551
584 145
159 803
452 788
109 651
575 509
647 900
122 789
540 593
44 462
363 29
814 30
184 186
432 296
124 297
484 177
589 806
275 866
384 549
849 569
696 140
689 717
599 824
52 26
457 726
693 803
591 274
772 499
206 764
117 572
867 769
744 373
852 254
866 781
618 815
50 16
674 525
825 545
291 774
822 508
790 651
149 103
758 224
116 603
119 260
803 200
104 99
140 468
656 261
601 324
676 179
768 180
329 40
534 378
645 760
150 206
280 25
595 687
890 549
134 802
543 504
411 171
654 590
832 759
418 233
593 306
371 274
722 726
373 570
338 57
447 36
196 431
349 163
144 189
550 501
201 375
845 518
756 357
612 791
276 188
41 670
365 496
831 130
374 156
357 892
609 758
801 286
361 121
287 897
271 524
806 580
382 257
723 33
619 574
363 205
150 411
770 635
616 267
706 606
564 446
892 3
547 21
658 16
694 777
833 210
236 835
536 151
275 394
477 782
847 435
451 885
817 431
248 554
389 616
709 446
88 542
30 641
30 428
112 105
632 773
76 71
591 501
95 368
868 686
150 741
465 245
527 456
638 816
714 154
842 352
609 107
893 68
295 546
799 581
315 480
433 91
410 27
104 407
582 811
126 489
552 874
756 714
848 896
236 27
598 166
599 44
214 10
363 716
480 682
844 149
772 7
459 241
817 453
758 877
744 1
563 186
747 252
784 2
125 534
200 286
882 486
662 103
111 487
667 182
42 162
42 107
744 475
676 238
141 205
417 472
324 892
56 498
349 681
830 34
668 224
731 163
284 130
32 107
252 65
606 453
660 610
100 345
535 603
369 411
593 718
627 442
406 661
334 182
541 326
29 732
780 588
233 494
140 14
219 119
805 497
769 752
457 323
37 402
57 633
690 102
595 472
18 479
541 471
615 368
871 63
47 18
81 791
840 102
654 289
215 685
739 833
829 657
226 838
619 447
32 499
14 135
250 538
696 145
156 276
593 889
290 8
510 639
690 149
353 479
412 454
517 561
367 295
751 443
351 860
808 88
148 665
75 587
702 789
259 333
6 796
373 823
176 55
694 786
827 142
398 768
845 712
866 248
5 23
480 669
389 317
544 124
321 194
780 898
535 198
37 209
348 87
288 862
212 718
564 636
231 600
305 172
396 765
679 759
349 240
249 193
114 855
78 348
813 12
834 710
67 374
156 528
430 115
215 278
757 651
184 84
689 659
632 493
388 342
438 710
304 793
780 760
813 573
697 746
147 415
208 351
573 769
524 589
500 735
157 240
121 678
795 554
124 323
142 268
168 809
127 781
590 687
855 779
171 559
371 810
264 720
227 891
601 503
51 680
108 869
768 64
567 368
385 341
293 486
553 314
757 311
756 281
121 26
427 436
175 317
654 847
414 464
290 194
40 579
756 113
591 751
479 833
689 392
600 499
852 690
413 371
605 766
179 551
137 175
368 151
166 350
332 101
289 701
317 194
887 879
636 59
883 199
620 413
412 762
74 482
125 570
715 518
790 823
757 511
739 505
8 589
613 837
246 278
199 846
84 735
770 456
766 471
674 285
566 581
750 166
383 621
829 216
292 130
336 57
279 251
532 288
467 576
413 475
741 754
237 247
37 293
367 473
168 737
813 143
120 869
814 664
394 111
178 816
108 612
344 621
189 400
808 391
511 633
609 362
631 569
772 719
30 193
335 177
745 122
874 648
672 635
655 525
582 615
803 195
878 548
899 554
398 442
665 230
701 736
413 725
191 440
449 9
505 527
624 499
552 336
717 85
477 603
157 393
753 497
649 128
244 492
355 748
136 610
834 896
599 472
621 68
513 347
335 518
808 52
211 473
760 898
6 333
718 557
745 210
599 128
674 334
303 48
638 568
804 587
484 8
110 444
349 509
591 866
423 481
745 552
849 87
659 161
582 149
585 183
70 547
822 676
400 128
180 50
847 676
831 702
591 833
191 417
535 17
788 388
508 126
880 580
539 454
184 646
310 832
176 123
164 735
33 710
17 471
288 812
296 879
832 508
498 791
170 10
890 174
841 301
658 88
516 411
555 29
520 9
22 452
540 751
723 185
651 436
10 564
853 869
880 301
12 567
327 393
684 879
205 34
227 13
29 617
106 108
752 791
231 34
877 390
702 803
233 843
76 337
41 772
59 613
423 252
26 240
844 744
504 752
216 628
120 460
313 42
679 459
73 718
143 627
841 759
332 621
576 14
322 355
134 853
536 577
451 498
124 180
270 192
91 510
757 593
241 557
859 500
477 876
25 425
688 108
690 397
893 61
706 340
105 685
587 200
739 146
849 63
98 544
542 234
764 641
143 561
319 738
547 253
889 175
207 648
822 289
852 464
328 37
793 856
844 387
826 658
702 492
495 117
889 81
123 776
835 719
653 46
14 71
519 846
201 572
146 282
509 534
38 788
661 836
705 521
405 784
157 333
118 43
85 812
600 704
582 129
585 217
343 569
52 717
290 80
235 86
352 559
173 670
279 54
484 823
873 636
206 360
51 472
306 545
627 653
167 16
658 36
888 501
389 413
839 665
728 670
536 752
823 426
751 57
809 789
720 291
721 126
661 340
614 629
341 509
392 713
225 463
565 901
566 358
623 115
643 410
740 624
275 660
890 307
331 166
757 83
868 573
282 411
701 252
201 93
470 442
600 893
384 423
438 339
539 647
78 250
527 634
724 680
263 811
305 155
803 315
587 198
145 431
842 799
165 361
11 487
169 667
684 491
480 564
778 103
726 401
469 542
141 542
474 30
112 309
548 834
661 782
246 511
825 872
413 838
322 880
822 633
90 46
901 560
822 818
717 526
313 696
902 266
354 20
706 289
317 587
13 764
468 28
711 48
179 534
878 46
60 568
630 735
852 311
374 450
688 880
32 474
235 581
622 51
345 5
236 487
398 626
170 899
40 522
702 75
225 776
389 511
176 634
102 13
690 850
506 496
822 266
842 476
520 281
535 569
410 860
79 621
405 186
6 392
812 581
503 477
694 240
332 234
112 263
888 887
160 398
695 192
9 728
780 92
598 703
12 54
35 600
825 646
202 644
756 187
113 87
873 28
428 856
305 706
694 425
731 337
35 124
143 455
385 349
169 645
405 82
796 403
113 122
139 583
727 94
507 425
361 398
380 107
716 717
844 423
798 462
385 106
794 354
705 274
544 550
891 337
358 365
464 806
605 377
770 346
219 348
664 511
761 65
494 651
850 534
500 57
199 202
302 318
838 843
323 426
398 408
290 545
312 788
628 234
39 323
12 724
587 173
282 753
444 576
231 776
804 862
398 699
567 840
494 127
186 865
116 120
761 210
870 540
565 872
458 191
508 482
570 357
843 468
75 27
302 365
399 487
42 279
854 704
741 151
568 162
160 641
360 142
801 824
607 760
731 628
71 239
608 436
256 782
275 357
171 259
226 417
530 36
11 791
726 738
712 498
788 498
369 219
573 816
541 49
834 61
120 456
855 769
709 69
86 150
876 109
668 400
607 698
884 608
367 252
519 147
832 688
689 598
717 663
504 695
231 879
430 521
125 399
491 339
385 361
295 744
661 279
632 466
768 596
580 648
463 20
636 426
410 637
875 489
748 889
825 666
17 282
717 348
800 576
441 161
721 236
163 327
171 207
856 629
67 443
711 20
179 191
839 558
626 286
805 346
631 675
403 272
221 538
338 49
599 167
249 75
196 407
687 253
894 671
894 848
38 635
605 902
277 391
349 794
116 78
336 103
203 251
598 52
489 283
328 96
582 359
485 773
362 369
261 521
532 117
143 323
589 68
539 390
809 873
198 718
259 112
227 617
720 247
857 436
178 786
197 65
163 772
60 274
831 774
275 570
830 687
616 386
335 514
84 152
18 688
175 195
430 754
235 291
681 669
699 746
901 687
649 17
118 454
264 113
122 454
747 140
568 724
785 683
242 588
367 697
406 571
632 806
634 93
292 815
122 707
484 46
593 587
31 492
785 181
783 678
668 420
553 145
185 399
169 197
812 284
423 712
46 54
104 89
799 319
433 19
401 860
536 305
42 590
773 135
258 523
208 354
387 766
707 757
467 738
211 537
100 779
162 674
696 289
56 11
517 567
111 48
372 205
295 578
167 265
351 60
808 611
156 747
305 743
217 581
586 781
331 599
510 718
595 57
758 519
505 424
582 794
732 102
237 342
226 574
96 128
208 612
204 713
653 111
256 539
324 318
566 659
845 711
458 20
275 551
351 867
727 743
528 487
795 555
451 440
501 334
514 134
58 792
113 426
27 453
666 130
154 706
122 456
338 103
103 677
107 148
713 625
859 510
805 219
274 873
60 473
578 593
902 590
743 884
327 612
709 202
430 112
658 482
569 402
860 42
596 280
630 869
361 281
226 631
278 36
558 289
191 215
250 42
664 845
69 97
833 11
171 384
57 284
367 167
197 766
614 461
226 742
775 96
282 692
372 483
444 816
671 836
432 451
395 201
15 74
589 763
92 437
665 334
810 788
833 764
705 167
463 612
889 885
194 782
784 135
715 330
571 193
609 118
153 333
480 334
106 704
169 463
853 771
582 788
324 87
417 339
255 792
290 652
164 397
314 205
351 373
174 715
838 777
875 612
658 108
401 394
58 864
367 233
630 336
438 848
869 345
140 608
708 603
839 369
162 719
678 817
588 892
366 136
385 415
371 255
100 404
601 511
214 667
640 147
493 251
402 135
22 676
684 351
758 722
631 96
578 108
617 644
295 27
528 302
295 264
857 35
530 139
731 566
698 658
623 524
807 174
548 832
663 80
665 625
850 441
81 266
615 891
654 88
693 3
617 72
470 388
290 854
795 217
458 628
520 832
296 188
143 184
61 100
227 177
379 34
599 882
600 660
503 196
554 719
235 618
272 266
436 131
645 345
185 210
331 809
381 608
651 278
814 136
100 685
798 28
429 80
567 559
786 137
472 268
533 806
77 426
83 771
727 484
321 387
164 611
17 477
63 313
734 183
607 335
809 284
849 863
223 300
171 314
187 65
746 186
820 786
158 409
804 628
470 415
96 837
643 462
614 227
275 159
222 33
460 161
318 821
597 27
236 888
342 272
366 725
773 442
138 326
704 260
132 835
405 600
104 346
32 23
226 592
605 401
694 537
808 600
219 500
241 713
607 754
276 312
186 759
81 800
542 574
10 723
890 316
193 4
546 426
729 429
539 43
306 755
550 248
146 297
628 677
22 106
813 874
647 770
135 404
428 751
229 823
785 284
804 8
875 280
273 253
737 560
193 283
258 436
178 20
668 469
62 124
138 596
69 832
599 837
156 783
363 114
40 602
451 823
665 247
867 290
552 410
721 396
391 442
763 501
750 174
899 308
12 647
613 251
785 574
219 506
750 637
666 540
700 597
168 243
645 527
478 464
578 121
101 833
82 575
448 350
763 610
732 359
788 346
805 644
827 769
425 495
577 762
578 232
390 513
527 801
344 579
689 483
19 165
310 296
91 533
863 153
95 289
62 440
433 488
864 436
592 713
402 603
773 103
115 356
298 153
889 794
526 748
196 470
548 600
805 342
370 788
131 581
761 157
304 63
768 646
310 229
95 716
639 420
832 613
317 568
620 362
250 525
395 345
569 728
606 560
737 440
224 725
341 409
502 881
356 836
123 12
767 378
141 507
819 64
627 89
76 497
648 754
846 245
95 441
79 147
616 155
743 509
139 595
379 288
566 244
733 295
18 3
775 803
441 274
259 202
544 455
74 636
211 815
693 516
268 4
380 769
74 865
722 153
681 293
883 170
39 477
721 142
479 735
152 703
98 794
444 453
373 345
191 230
867 97
12 1
548 336
547 495
571 274
57 339
113 94
212 774
168 287
396 774
371 879
262 2
820 502
466 28
433 855
175 708
434 488
785 400
125 751
456 26
389 154
609 767
168 89
3 495
714 73
361 403
886 87
559 119
513 318
583 838
602 534
513 270
441 480
54 613
408 490
191 36
94 273
820 2
833 604
535 747
730 644
485 840
785 690
260 579
646 893
277 315
6 651
206 900
500 737
452 779
150 197
251 80
413 289
749 380
418 739
716 446
440 791
257 167
780 263
296 134
218 66
373 557
444 435
730 404
176 326
386 652
856 160
380 427
461 437
346 759
513 759
849 33
631 162
831 145
110 723
656 762
429 306
585 36
605 462
825 533
272 499
878 834
330 803
614 612
189 252
706 390
525 728
857 18
512 14
479 889
698 854
273 65
127 570
607 401
847 422
781 297
505 168
841 215
526 344
456 507
514 209
99 424
19 95
737 451
900 393
499 902
244 56
541 865
336 105
779 162
428 268
412 547
818 671
78 467
606 145
643 169
326 228
747 454
296 455
821 641
67 376
618 315
244 431
164 488
11 563
670 493
411 509
661 44
552 237
784 228
183 220
774 860
280 560
633 902
355 81
217 237
671 748
713 50
638 401
196 652
267 628
114 177
141 712
664 854
379 557
332 86
78 93
479 129
62 769
449 611
678 737
418 190
58 803
478 881
40 319
481 424
407 469
137 286
101 85
874 705
727 225
802 623
566 618
343 248
328 250
716 3
150 154
534 579
884 538
421 292
878 256
696 64
526 723
844 879
443 865
532 96
92 693
328 542
101 777
341 806
85 712
830 158
192 195
46 34
657 753
527 154
678 136
731 384
141 705
698 315
295 705
757 54
207 867
353 635
203 738
449 612
173 629
412 642
747 695
553 76
476 896
220 717
354 131
332 476
443 815
410 344
381 9
765 594
344 306
658 825
52 600
35 340
853 589
827 25
22 669
684 646
167 498
206 198
78 827
709 342
638 558
283 209
410 459
500 75
859 95
660 36
661 333
555 326
296 324
95 92
139 704
814 191
871 442
859 245
675 832
541 617
729 856
492 806
733 65
353 854
644 21
23 762
672 579
573 574
469 787
822 184
353 375
99 416
501 897
358 53
66 64
217 634
306 592
325 308
539 769
324 635
827 30
224 388
189 740
353 683
669 314
95 401
249 618
241 576
164 627
511 339
166 161
756 724
98 276
316 323
616 372
691 322
583 613
98 497
531 822
10 240
551 636
364 106
419 90
19 449
130 27
792 266
206 310
620 443
875 520
894 308
380 343
668 13
181 866
535 887
178 804
654 880
313 845
578 406
483 435
802 632
507 297
555 848
851 863
63 11
151 426
154 506
327 129
243 253
227 530
346 8
772 867
312 152
256 869
332 606
394 686
345 667
849 111
319 288
733 148
124 787
691 131
785 403
255 264
510 469
683 8
795 626
335 352
500 343
835 341
363 596
645 52
823 865
745 603
238 681
277 551
132 161
170 508
463 657
431 188
544 310
11 337
304 31
659 80
697 261
753 636
826 268
261 153
355 754
407 789
637 770
543 759
780 747
758 615
341 486
549 641
108 439
118 229
491 723
722 248
241 207
577 259
615 847
889 580
249 383
357 230
893 617
513 238
90 28
401 415
661 900
242 806
831 823
829 89
137 722
409 222
232 667
671 149
821 590
328 835
184 200
883 476
385 396
632 710
335 640
673 388
397 881
363 474
636 579
698 281
19 246
719 388
663 667
78 791
541 133
686 72
91 75
564 493
656 459
748 404
144 42
326 381
571 629
382 291
129 77
242 155
885 93
461 507
669 182
317 513
366 265
264 77
448 300
645 264
604 702
407 69
618 388
160 532
582 619
363 578
125 575
328 181
19 142
313 864
483 529
261 378
282 537
245 720
83 173
490 506
156 762
838 506
658 737
658 892
88 741
166 522
477 50
705 343
264 673
445 41
249 408
67 353
514 778
392 596
69 703
358 112
459 270
739 29
99 848
832 94
189 36
154 70
63 384
46 72
653 96
802 272
414 570
143 24
56 178
652 550
737 581
883 112
756 482
848 899
224 718
577 654
464 892
304 737
585 139
198 549
887 265
170 223
682 608
402 117
325 419
519 648
683 595
595 94
320 673
890 117
241 299
12 334
434 418
877 409
168 736
511 239
645 88
404 285
795 871
367 818
548 27
655 403
215 294
243 421
542 281
770 337
202 482
275 40
98 354
39 590
212 622
578 723
668 30
320 180
653 68
230 515
31 773
395 316
416 210
197 632
535 803
847 103
807 260
23 865
410 271
210 501
859 541
92 637
693 827
267 838
824 521
170 287
254 33
638 128
811 702
719 89
649 53
443 210
374 129
744 586
232 543
410 834
583 179
325 628
802 626
435 387
237 424
756 210
419 376
557 426
668 230
120 767
85 473
84 599
140 84
732 75
416 902
308 757
257 411
439 456
646 224
753 437
775 388
289 454
851 866
618 110
890 680
78 356
71 182
660 836
883 523
6 762
302 864
884 301
614 868
795 154
209 486
185 20
117 253
750 828
857 274
883 671
363 124
550 629
211 219
793 283
596 681
614 312
324 683
731 126
410 400
599 294
110 144
398 203
91 631
662 719
865 323
313 561
260 549
597 193
544 435
543 133
467 27
715 97
566 708
716 895
788 348
721 727
24 385
170 160
133 60
197 767
136 421
823 489
823 111
532 591
585 813
841 187
95 38
627 272
322 665
386 9
461 666
118 78
250 582
156 687
765 119
893 34
77 840
896 100
236 586
38 766
884 111
479 92
264 718
851 530
265 155
517 735
105 687
804 338
179 730
553 86
610 1
60 840
22 243
791 309
227 595
176 350
341 849
624 792
269 810
328 506
474 178
38 787
740 710
616 769
818 696
389 827
31 240
358 864
343 105
271 764
368 736
129 646
895 346
511 803
795 104
775 363
887 425
709 546
619 499
432 487
413 140
380 549
550 466
199 768
2 348
737 108
352 665
739 279
28 488
214 676
434 326
604 801
56 706
146 82
295 854
721 123
206 8
631 690
120 788
544 449
607 31
504 360
322 435
894 421
324 435
181 697
74 304
186 636
775 36
310 858
563 771
587 333
473 885
468 453
108 23
517 765
592 460
539 640
98 29
416 490
372 899
48 388
275 116
32 883
867 333
785 414
56 387
57 442
790 420
690 38
535 579
170 513
661 682
484 830
129 127
159 545
739 515
694 613
760 49
777 501
10 717
688 648
302 440
658 191
680 65
892 323
294 155
4 194
705 446
731 824
17 881
358 93
328 375
253 161
2 447
750 674
328 435
26 297
227 213
705 487
536 239
748 625
458 94
470 701
473 686
510 615
434 645
439 242
422 142
79 812
629 590
778 454
789 880
780 731
223 268
216 273
783 131
570 342
805 146
379 571
539 423
99 786
351 141
188 545
291 348
287 224
841 426
878 811
699 602
612 489
310 13
336 164
27 687
872 195
429 15
88 517
603 307
290 612
786 391
303 276
327 478
516 44
717 850
554 692
242 873
732 312
407 454
734 894
481 816
799 234
431 460
396 226
620 48
44 524
606 175
542 892
275 381
408 752
327 360
440 316
637 193
675 530
358 546
783 136
474 881
860 416
626 287
363 292
511 190
742 115
218 224
811 25
654 773
513 890
878 68
163 673
760 586
405 382
392 584
85 709
857 898
69 33
123 90
664 180
627 239
631 880
797 829
652 475
814 574
447 612
229 561
824 901
714 876
480 754
129 485
112 667
594 348
153 495
389 833
528 787
104 421
103 738
288 188
839 788
553 736
678 402
774 861
466 107
712 515
291 347
153 408
669 223
580 337
156 310
104 127
12 88
535 415
698 478
162 557
306 498
825 65
275 685
790 171
793 885
616 36
194 506
351 735
791 495
669 682
528 390
712 611
322 518
886 829
839 570
347 79
596 200
259 692
41 521
225 228
655 447
390 185
790 290
526 463
831 858
489 754
182 641
392 494
863 447
828 312
367 684
24 166
745 827
168 652
67 835
746 426
384 866
802 392
35 874
877 15
788 865
553 745
1 36
167 755
297 43
78 495
575 791
101 672
820 591
376 417
458 155
413 410
287 223
605 368
582 248
565 860
256 475
244 547
606 428
465 669
689 448
62 577
568 415
362 47
328 808
898 3
717 893
437 880
277 198
304 677
63 351
413 518
530 288
895 646
389 567
453 261
214 761
513 869
556 7
791 145
703 880
887 34
765 407
747 884
783 231
894 741
588 522
386 524
477 69
463 549
449 713
846 37
802 841
515 682
255 261
202 300
789 744
519 484
178 31
65 579
190 127
184 719
449 636
745 430
216 11
692 642
153 200
218 729
263 157
458 447
74 558
17 155
231 103
356 879
451 769
395 60
434 388
714 153
530 655
338 781
133 303
276 838
477 408
478 286
578 15
444 154
438 800
121 759
229 701
74 805
458 708
184 839
614 513
246 623
230 318
433 898
876 436
89 590
407 435
777 887
477 889
829 495
833 894
499 299
603 281
607 270
620 769
725 480
659 550
168 254
695 316
614 431
735 901
335 481
243 90
333 475
668 277
780 845
373 447
709 762
429 509
654 149
380 621
288 542
19 235
610 81
671 489
830 634
372 249
321 23
175 291
640 621
642 340
473 204
143 562
318 542
526 596
746 93
395 697
303 591
548 299
783 503
35 316
699 193
718 223
701 189
352 431
150 214
243 560
859 439
193 334
632 266
305 482
435 720
380 367
751 840
467 524
69 378
540 807
588 488
870 687
516 559
579 686
396 158
512 475
307 713
306 579
894 832
551 858
823 657
113 682
22 657
132 484
39 792
58 725
867 830
676 506
549 640
468 815
22 636
277 845
208 460
56 82
354 80
29 239
884 30
359 140
303 496
219 204
609 324
21 365
277 702
685 284
156 642
318 863
594 353
743 234
763 680
731 169
843 339
134 833
254 13
92 440
274 55
338 788
517 324
717 633
546 299
874 203
529 126
568 740
749 702
146 125
355 655
238 837
178 209
92 741
410 556
277 722
158 838
143 791
347 334
58 90
60 797
671 663
244 671
150 442
727 777
817 610
214 617
68 556
235 379
91 837
220 205
679 395
220 871
721 15
421 546
61 80
462 182
482 135
156 159
727 293
158 96
34 393
151 787
825 216
23 20
389 783
194 65
856 55
105 383
857 866
397 873
895 309
342 897
789 376
220 600
169 730
829 273
23 560
264 247
466 879
438 568
416 36
440 301
380 150
236 243
271 412
439 188
311 142
149 735
369 541
279 364
463 499
451 343
528 440
820 721
749 4
140 579
291 51
434 727
727 847
254 129
844 321
664 567
421 400
573 755
524 480
847 417
482 715
212 491
654 198
604 354
531 377
74 500
536 439
459 111
594 840
381 720
261 354
819 162
652 40
140 812
656 427
215 237
217 606
859 462
275 519
718 281
684 345
88 195
868 272
373 201
466 285
376 792
504 333
362 346
328 454
733 804
515 497
611 462
116 832
614 548
369 715
847 670
428 763
275 95
414 119
15 638
472 496
842 211
705 145
242 285
271 487
299 155
320 639
727 315
140 375
533 227
269 394
235 193
116 790
183 691
96 64
115 860
839 666
26 641
206 894
120 55
7 710
121 499
854 111
891 586
731 656
18 742
221 546
540 307
534 460
575 259
338 331
47 218
857 42
716 405
472 72
382 719
827 695
238 627
539 460
652 897
279 1
668 425
742 638
301 486
395 730
359 741
505 878
676 246
825 130
772 834
221 59
518 431
829 5
78 157
12 846
282 309
37 695
820 598
470 662
452 434
18 846
826 227
690 189
663 130
429 701
47 425
432 121
323 167
235 754
877 63
329 633
18 737
822 3
88 564
690 398
79 311
483 301
639 144
270 333
552 148
880 769
438 466
494 736
649 324
262 140
770 866
599 685
729 210
195 187
124 755
840 36
713 314
54 697
364 180
772 211
832 550
444 124
725 221
67 574
620 850
626 102
465 207
453 309
785 701
439 230
799 587
671 262
441 404
609 400
772 420
459 348
756 670
222 669
67 709
299 634
156 468
174 480
620 171
322 866
514 751
733 783
185 777
310 597
424 900
900 605
795 695
274 881
320 725
411 238
181 55
89 205
870 143
638 430
315 682
684 543
813 231
83 685
191 798
707 435
201 173
458 805
384 896
459 11
461 867
632 753
439 480
393 515
781 602
671 271
430 45
257 329
144 246
143 166
384 202
275 470
520 838
403 704
98 357
833 139
840 426
413 881
896 736
606 384
654 851
806 70
516 818
803 728
741 882
395 410
317 401
742 222
525 792
421 261
427 166
692 670
783 777
718 9
111 590
367 111
432 873
816 794
171 432
356 605
887 837
157 253
183 403
756 783
452 431
788 200
237 506
518 393
847 833
707 604
778 692
448 228
413 4
159 213
14 695
432 499
789 174
19 735
385 184
721 115
349 850
850 76
432 162
172 93
282 119
157 873
599 445
729 889
396 536
535 64
349 429
476 650
144 354
561 603
430 316
781 309
32 343
784 44
530 119
513 213
729 243
85 899
537 817
275 262
508 234
422 60
428 559
525 507
727 212
163 880
892 655
288 48
472 781
851 416
398 622
113 666
58 304
646 593
756 817
351 127
262 334
818 117
411 481
305 233
288 596
310 90
439 866
631 489
78 844
409 192
178 392
600 237
377 180
529 145
35 711
824 267
896 508
825 54
551 294
863 682
318 635
520 89
42 456
206 465
366 882
891 309
747 31
322 565
656 872
678 757
320 262
774 309
872 892
707 240
483 39
428 587
701 109
51 337
255 70
754 611
24 711
370 2
334 36
445 564
155 281
266 755
391 562
103 740
713 253
531 98
435 492
722 117
758 234
758 607
101 844
302 790
446 812
275 234
456 300
734 131
148 610
573 547
60 265
38 864
118 51
100 538
472 161
125 195
215 652
122 779
242 890
402 43
404 496
25 394
795 119
653 312
654 755
725 498
732 791
531 433
401 670
324 567
256 167
512 782
41 866
170 430
371 748
464 655
238 662
180 270
98 220
654 860
617 834
826 842
819 164
765 373
437 754
215 788
199 371
770 173
492 68
38 823
11 662
738 642
725 794
544 680
262 687
102 869
12 40
267 816
765 785
15 694
575 373
606 832
826 33
898 626
630 556
740 36
675 50
29 790
502 260
855 430
732 673
841 612
584 560
440 459
386 558
349 773
867 334
308 102
160 148
84 439
835 409
264 103
676 194
894 46
254 308
190 574
60 867
574 54
595 344
390 787
171 186
322 34
517 306
444 872
25 897
625 529
606 525
646 868
313 720
702 274
577 793
845 81
411 175
216 464
820 257
236 889
671 631
664 689
635 383
224 650
830 421
723 109
541 14
465 301
211 321
356 865
804 832
17 370
318 27
788 108
883 828
99 306
364 145
900 837
885 892
690 890
468 861
417 776
199 464
274 498
679 860
520 845
352 291
481 129
834 274
372 720
727 868
874 488
124 799
32 192
396 494
509 339
733 894
809 565
292 175
441 509
170 121
425 586
407 35
635 426
484 204
484 793
461 736
178 233
585 319
197 214
325 417
678 785
896 412
435 547
900 352
319 447
264 568
320 437
85 251
214 891
747 735
396 136
804 209
257 591
312 492
294 468
369 856
443 868
479 407
277 826
855 600
767 415
363 390
678 773
255 700
537 560
518 71
122 876
372 354
264 171
855 343
400 640
788 284
224 87
246 489
757 6
704 611
707 836
742 560
428 355
340 887
320 344
789 507
737 686
810 493
457 798
822 542
208 441
49 88
372 524
33 486
629 360
487 650
218 487
826 173
510 690
24 885
497 209
494 630
165 69
188 613
463 571
709 831
564 537
784 292
35 768
218 93
769 347
18 539
148 670
116 831
793 26
405 228
558 282
616 818
874 769
371 391
693 902
894 840
362 397
326 400
275 771
537 682
385 707
98 83
595 787
121 357
563 890
636 608
86 496
514 577
407 695
571 656
19 569
438 263
385 393
173 581
518 556
320 789
483 442
358 43
827 596
170 694
332 146
148 650
352 142
278 762
742 240
411 190
413 460
152 472
859 164
724 603
491 142
168 187
760 543
317 518
85 436
291 610
766 719
303 599
804 488
92 266
592 509
413 220
137 720
622 66
430 846
327 617
714 509
146 542
236 617
681 57
833 185
176 865
86 298
120 487
156 48
286 265
215 445
822 176
644 858
477 588
116 531
120 161
49 845
301 767
745 333
845 260
452 160
591 467
808 89
843 490
424 736
827 404
470 509
99 736
692 545
780 409
853 701
730 898
854 284
381 247
113 633
94 549
146 858
517 252
357 126
267 391
345 209
454 102
720 873
330 80
257 336
369 574
833 753
650 409
231 759
118 580
836 492
12 337
498 1
732 192
381 473
12 125
737 688
884 496
171 7
617 640
286 728
304 458
853 768
532 634
12 877
308 180
127 623
58 98
96 145
405 324
732 757
410 234
31 341
514 228
91 406
158 800
679 116
257 312
799 789
262 440
227 320
445 265
804 872
15 810
784 626
143 582
510 138
256 549
396 27
528 757
852 34
778 662
851 474
637 16
548 106
786 342
382 448
771 54
497 682
822 284
373 200
466 688
178 861
51 153
325 538
614 447
236 688
241 685
776 26
872 601
441 602
799 381
765 317
324 488
121 6
678 97
274 142
735 80
368 130
539 237
316 162
262 439
743 16
374 488
267 888
714 640
257 115
509 629
879 495
367 268
773 9
407 445
80 677
299 43
82 697
295 608
530 677
180 350
72 383
10 76
418 343
259 284
721 473
367 789
99 93
838 486
138 886
804 445
660 410
442 307
92 164
310 23
763 89
459 318
96 550
777 149
559 437
501 194
764 3
766 854
160 881
784 406
877 359
753 278
56 383
116 136
222 36
23 888
744 111
284 613
229 574
802 573
732 830
18 847
514 69
22 730
849 638
294 736
833 708
533 705
249 686
782 192
343 268
379 761
221 485
684 328
367 748
5 297
168 63
818 556
501 764
32 283
585 834
378 704
324 79
551 274
184 889
459 890
152 248
586 334
430 329
289 340
129 617
381 710
863 779
110 306
463 771
82 869
808 636
691 36
823 860
161 837
532 263
878 570
610 611
666 817
520 844
26 333
742 506
778 643
229 168
891 701
177 581
531 658
815 641
807 499
646 677
185 779
613 50
541 352
690 829
69 186
553 274
271 499
399 103
510 850
520 421
723 670
170 831
688 294
780 436
853 602
178 652
358 870
14 403
531 295
808 352
257 849
55 770
295 697
259 40
154 286
249 719
726 567
508 537
658 222
749 874
53 365
347 157
827 224
349 177
739 834
60 68
386 329
63 562
304 163
250 310
358 575
889 896
234 633
322 132
333 590
76 324
645 186
352 266
77 552
595 237
668 205
597 209
478 102
379 459
643 863
750 508
550 810
664 818
4 648
781 762
833 496
831 69
329 736
466 401
340 194
643 294
755 557
448 437
149 876
851 42
82 266
637 347
413 146
694 472
52 10
273 381
366 633
76 492
97 686
99 488
708 300
598 455
171 543
441 279
872 252
684 130
261 223
245 506
158 542
199 391
532 619
255 175
607 891
626 72
685 466
207 455
833 60
709 897
601 8
353 70
503 632
505 777
531 309
328 377
201 205
457 256
84 36
24 7
840 350
206 819
282 736
100 740
664 348
206 289
615 119
489 285
705 83
249 628
220 46
239 498
186 234
276 165
396 817
500 273
100 830
229 264

884 4381
74 368
768 704
56 722
847 603
607 260
241 317
843 768
760 751
145 33
688 641
781 785
582 856
415 610
61 38
168 830
101 223
763 180
303 418
547 512
881 510
773 212
10 109
385 773
280 184
835 848
341 529
592 328
841 38
162 164
221 337
665 177
39 309
593 806
297 353
156 394
212 735
266 326
855 8
344 463
229 257
477 735
240 160
789 874
314 740
42 289
78 46
150 828
500 836
690 75
746 124
657 847
267 624
821 57
515 697
218 603
715 811
754 441
411 743
133 636
480 179
852 798
297 25
619 64
582 84
609 841
454 589
697 559
185 738
627 759
829 655
259 4
667 387
760 799
228 640
483 728
156 223
610 510
621 493
236 474
881 64
457 387
424 842
349 320
847 193
557 358
709 287
503 177
375 783
211 854
300 635
16 398
366 75
432 138
331 240
61 540
872 471
247 828
514 308
220 322
662 297
385 307
630 359
878 558
260 835
561 445
444 493
212 393
319 158
272 750
33 353
269 726
90 207
125 689
113 393
520 620
155 172
727 226
711 793
676 474
235 122
185 596
882 786
574 531
40 448
22 353
774 286
523 614
397 107
84 538
710 233
470 248
56 329
365 313
204 768
884 65
479 687
760 79
266 828
688 353
403 848
857 430
500 713
182 417
717 234
709 597
153 221
175 57
515 148
786 805
452 356
698 124
111 33
259 703
629 548
89 236
134 621
635 261
371 81
237 470
760 736
795 501
483 279
449 848
197 435
697 173
499 505
873 268
576 206
298 599
354 536
267 269
801 386
675 47
252 447
623 599
592 639
866 80
758 879
432 523
561 180
62 822
249 738
50 770
675 188
487 319
342 605
40 219
666 691
702 345
596 304
139 448
464 811
855 447
471 359
89 255
415 640
540 37
575 781
168 63
666 290
298 792
225 808
854 840
673 359
766 627
324 127
487 541
553 774
774 393
133 543
522 580
262 189
541 659
29 734
66 840
565 572
582 490
239 165
141 293
677 83
94 169
403 361
793 846
116 435
388 184
136 209
360 783
159 476
99 13
736 731
303 229
55 208
768 367
814 516
776 747
190 418
249 76
703 671
68 333
733 862
396 708
880 559
845 761
719 549
99 612
460 176
357 292
140 180
273 3
234 689
219 856
228 629
239 149
222 776
78 13
165 799
767 506
364 170
439 336
218 205
88 224
348 633
448 355
882 737
131 856
271 572
26 501
265 436
304 260
583 390
163 75
257 559
3 402
459 641
358 602
332 112
282 721
101 118
712 165
142 520
588 674
590 721
609 547
167 512
187 206
170 394
540 285
299 95
34 386
424 285
636 694
267 118
56 643
327 645
718 181
549 289
26 589
316 364
769 384
121 567
857 560
125 7
843 747
19 29
653 650
54 577
150 528
834 545
137 727
45 326
395 212
749 328
35 189
27 548
857 23
165 546
574 269
115 135
576 449
317 743
448 181
290 286
883 884
539 328
479 822
45 794
235 559
229 726
571 436
90 518
162 411
634 158
128 791
56 372
365 278
521 832
278 503
315 379
745 226
323 491
552 670
58 869
494 693
244 520
243 512
262 49
135 317
265 633
750 764
125 572
610 604
97 739
60 637
499 433
320 813
822 643
429 795
175 331
110 597
272 884
8 77
570 200
830 216
471 31
45 150
122 728
3 209
205 802
598 65
182 81
537 531
769 47
354 96
190 177
708 505
13 680
555 28
321 126
417 669
1 875
349 500
609 340
35 722
352 438
167 333
742 136
874 663
410 727
51 775
582 609
687 418
35 532
70 64
165 334
93 462
97 486
246 773
304 462
228 149
10 32
139 249
432 77
513 468
342 830
717 87
366 127
719 569
777 770
424 69
410 572
853 776
106 399
159 155
39 101
273 118
165 160
555 149
276 421
439 832
740 159
812 764
500 206
834 305
546 263
820 791
165 551
626 601
678 102
457 181
40 363
343 193
370 155
883 658
796 674
452 547
586 663
110 756
438 577
663 306
495 23
243 328
740 522
74 257
779 228
546 233
459 416
197 489
814 821
211 173
301 798
189 699
877 213
695 114
786 781
58 568
19 818
868 83
667 725
262 139
871 454
558 750
213 258
684 838
291 543
218 741
440 840
218 502
332 400
351 835
606 121
727 306
765 123
197 361
604 191
696 456
420 200
168 438
351 627
557 730
209 161
241 725
411 621
377 762
29 257
712 819
218 542
103 66
253 312
334 356
446 476
718 692
448 334
404 208
574 440
315 278
150 798
220 765
199 77
216 167
507 437
788 351
609 270
760 579
451 496
107 654
380 795
531 289
20 635
671 551
521 717
795 545
779 811
228 328
69 391
643 757
539 664
203 186
791 399
556 730
688 249
136 646
46 322
12 374
268 387
655 355
108 194
734 705
708 307
114 674
181 482
101 338
447 879
377 167
782 123
162 525
768 208
92 334
589 8
865 202
125 562
519 406
582 698
557 554
796 83
545 418
268 783
340 825
786 409
370 848
823 828
165 401
168 874
596 843
479 49
284 381
10 117
524 57
34 418
881 528
456 16
332 840
161 96
76 533
82 86
300 161
411 635
143 160
730 661
401 148
349 855
633 289
778 449
411 31
302 436
657 430
550 640
1 386
779 224
242 739
647 673
718 798
27 722
526 530
583 114
143 512
90 545
702 714
75 750
149 294
777 24
100 161
101 61
841 337
556 26
205 783
452 425
163 3
377 861
276 833
259 746
648 237
596 705
868 174
209 148
296 586
592 496
217 641
113 187
521 774
179 571
323 131
578 71
634 408
797 444
410 174
564 473
838 669
712 332
626 379
516 494
111 330
792 292
335 136
151 739
481 296
264 274
195 144
342 138
159 832
666 580
513 240
666 597
538 654
777 590
120 766
513 359
843 234
594 612
471 404
771 841
166 504
576 319
249 22
71 406
642 166
695 203
280 591
111 226
7 24
82 548
818 721
632 674
141 263
397 466
769 41
73 740
883 183
479 362
402 124
66 464
182 144
50 310
284 392
513 44
109 398
681 232
511 69
882 603
61 412
600 269
637 109
748 48
696 491
729 675
607 255
756 144
296 25
403 536
243 306
560 464
130 265
446 245
446 835
50 24
488 75
416 312
749 666
544 226
644 794
334 878
810 506
778 443
288 276
177 302
569 540
126 326
40 551
649 802
461 441
815 606
619 117
871 24
598 688
655 380
125 193
630 26
53 650
378 112
758 343
153 67
687 506
139 176
507 257
112 43
179 659
145 412
422 801
257 599
847 192
461 773
79 362
240 664
320 465
746 430
640 644
787 288
125 770
163 730
718 738
190 464
780 782
91 441
684 559
455 338
369 66
339 864
850 381
478 586
430 372
569 662
828 71
550 558
609 661
352 704
460 238
868 243
853 444
321 731
563 610
749 176
876 568
253 374
346 709
847 807
115 790
594 338
667 8
1 703
636 230
513 329
472 606
397 364
378 310
94 693
113 167
149 694
332 250
776 75
181 581
647 167
301 870
655 870
234 283
803 563
54 765
624 412
630 383
170 124
394 772
318 763
304 715
57 193
35 726
118 836
249 233
38 191
687 813
168 820
78 219
834 589
462 879
675 496
692 361
162 206
733 90
273 337
241 772
511 193
549 510
632 797
321 471
543 851
40 604
141 613
219 646
788 672
583 751
844 466
58 69
168 200
849 470
297 362
82 447
526 159
11 121
645 5
608 726
129 291
457 545
354 863
480 654
613 620
395 160
711 19
17 470
368 308
169 504
341 564
754 645
59 473
793 102
884 522
423 633
707 127
179 493
752 281
861 836
476 230
423 690
293 581
423 372
260 743
884 553
600 519
31 745
824 763
508 380
324 727
661 8
122 214
648 51
81 547
260 825
373 613
389 603
672 425
657 624
340 708
334 697
805 67
40 654
446 490
517 351
573 402
630 248
210 527
281 581
377 723
342 366
72 24
728 399
242 585
314 74
667 31
815 805
690 148
619 774
527 76
395 391
270 362
271 536
92 670
757 545
735 359
280 528
738 781
766 159
142 149
606 350
54 11
93 441
844 796
756 401
684 406
408 831
746 798
157 306
565 693
86 502
168 371
264 412
592 765
220 726
403 293
42 47
225 261
245 714
411 293
323 199
507 290
16 792
841 518
344 618
384 833
729 46
445 616
708 818
708 655
692 20
857 646
199 441
471 867
631 474
260 152
98 879
500 242
564 789
183 374
250 473
692 674
860 837
366 735
141 744
644 627
756 597
557 153
578 373
500 436
318 663
376 47
423 295
529 821
197 372
34 54
753 249
246 539
263 43
10 482
136 825
66 176
202 790
103 672
767 295
881 21
273 317
827 626
94 322
205 826
22 261
296 794
85 458
376 706
878 580
73 152
164 404
793 65
132 381
723 767
26 14
634 475
42 161
648 398
12 109
214 620
252 476
507 588
550 32
202 335
700 194
167 798
166 738
164 866
190 595
549 659
35 165
570 111
237 33
239 461
439 586
850 226
534 768
452 589
253 225
881 707
92 33
129 41
130 473
829 867
149 38
119 792
9 825
29 560
429 171
800 449
52 269
324 553
878 144
609 506
51 329
574 482
85 777
733 807
711 95
52 179
142 366
733 494
272 590
438 705
882 126
865 30
61 699
674 599
634 782
157 722
213 795
269 398
16 254
841 680
314 666
200 757
240 258
517 248
791 355
463 616
264 423
720 21
602 496
660 91
769 841
809 826
719 44
683 785
866 531
460 859
834 159
154 67
49 256
432 221
269 172
215 290
878 716
254 721
26 334
702 816
461 531
498 680
46 518
746 188
692 347
216 532
693 14
250 63
569 16
218 174
119 308
149 124
458 625
827 277
719 739
681 651
637 755
687 458
249 826
34 524
660 808
276 132
408 383
120 660
815 59
120 119
822 155
219 783
18 741
678 532
556 536
156 77
62 746
525 242
446 773
639 601
323 304
490 413
164 240
571 412
788 142
437 472
574 699
459 839
576 424
779 619
190 757
265 79
868 808
730 544
622 644
622 167
824 218
237 560
806 286
185 698
865 613
718 1
478 176
318 691
420 230
85 199
217 572
786 874
15 172
495 382
403 497
150 379
832 846
762 669
303 225
344 494
785 568
199 671
865 668
423 520
119 743
268 820
706 343
561 425
163 196
823 636
19 391
312 763
258 30
705 431
100 45
779 55
428 159
874 302
529 310
282 64
681 793
349 496
774 238
499 287
814 106
651 378
394 551
288 46
287 25
751 192
265 647
834 263
222 363
812 861
756 807
882 22
280 205
9 305
528 747
412 391
824 63
454 782
324 621
739 172
316 875
779 520
673 302
552 158
398 698
679 464
369 428
666 394
432 752
769 464
204 524
178 650
272 229
881 457
288 758
644 581
480 24
815 554
389 659
550 668
619 503
485 212
711 389
303 394
860 288
873 274
627 650
4 510
159 420
284 740
726 759
844 795
125 467
675 793
734 713
273 731
847 289
416 305
27 241
725 394
600 226
728 782
529 218
34 846
237 650
823 626
446 144
259 386
813 290
411 664
139 319
664 548
348 448
770 404
511 493
672 423
723 77
299 335
447 497
781 138
711 823
451 398
513 66
70 420
15 421
129 857
385 12
97 855
42 231
282 195
871 263
211 837
196 474
270 833
609 423
865 362
738 216
653 559
589 765
239 29
22 567
418 63
862 361
438 614
98 161
481 210
742 212
817 694
622 67
342 572
695 653
294 238
705 693
80 747
282 750
581 747
565 758
364 870
165 275
574 636
404 807
503 757
174 393
730 806
323 132
768 55
626 855
273 402
420 124
366 102
42 292
116 152
634 416
672 24
528 381
15 572
416 838
571 433
148 169
58 740
810 378
671 650
500 181
430 721
267 345
270 223
437 694
737 461
479 361
560 573
688 23
748 612
845 830
641 135
829 741
370 1
407 307
872 323
48 616
611 372
128 365
644 206
811 224
667 170
151 501
501 261
509 121
13 670
268 55
569 647
269 842
143 666
678 494
718 252
718 34
578 851
423 879
667 654
598 268
582 543
639 15
767 218
515 159
147 482
94 63
204 555
800 5
742 849
377 566
321 705
644 566
90 687
324 285
507 762
272 336
475 379
133 337
100 71
672 167
304 572
506 5
815 269
574 765
806 589
788 200
242 693
239 41
515 634
700 382
117 317
432 336
729 414
569 548
142 190
181 310
407 568
478 8
40 405
478 246
485 838
174 192
450 473
748 144
628 554
34 24
508 199
182 351
536 330
438 584
78 209
278 866
318 320
868 618
626 187
858 381
306 603
624 418
57 474
19 655
242 605
78 320
481 28
574 292
706 43
856 192
158 312
34 305
128 705
720 688
829 360
784 150
48 125
582 11
162 493
438 744
607 386
773 81
691 356
352 414
762 345
840 419
499 687
662 571
838 83
185 344
447 666
273 705
190 540
311 192
343 794
605 419
475 828
648 666
849 15
266 747
301 205
269 345
715 233
881 702
527 102
148 192
204 421
339 848
640 167
760 88
818 754
619 152
32 286
804 545
770 625
305 43
577 121
298 49
525 388
729 537
278 80
785 802
331 527
40 274
738 473
469 254
561 368
264 389
265 281
141 65
662 685
517 43
495 208
775 567
546 631
74 743
729 320
581 559
641 425
881 876
358 343
701 335
487 693
23 295
814 203
139 810
185 403
488 685
858 564
318 396
162 511
1 496
573 747
590 289
762 363
139 699
655 339
510 109
683 167
459 650
704 661
195 577
706 28
696 399
626 794
861 406
350 682
413 112
575 651
444 173
733 62
780 279
621 533
341 472
117 366
92 671
788 180
517 421
810 177
151 307
116 194
758 689
390 554
576 646
564 395
692 320
267 192
161 392
753 374
773 184
58 650
97 96
172 374
409 663
29 177
31 614
485 607
838 199
677 176
471 540
700 857
610 245
239 117
408 541
109 231
324 216
35 496
146 693
623 837
94 344
539 509
684 252
55 538
396 183
287 363
340 501
272 701
324 111
843 540
58 546
332 594
550 243
55 585
853 6
446 676
711 104
763 694
190 420
626 492
678 115
368 715
720 112
525 579
857 313
370 271
459 465
159 795
20 713
20 6
728 336
611 624
580 674
446 710
323 394
873 236
817 847
514 454
52 569
402 706
780 16
712 497
695 311
873 298
853 772
498 502
562 401
237 691
492 445
145 845
457 627
95 191
596 624
209 808
194 614
869 386
181 227
858 122
586 71
217 293
219 530
755 580
582 266
464 224
727 289
323 39
879 474
526 587
646 274
264 727
872 268
637 745
229 588
86 794
507 307
15 193
92 757
181 745
478 241
781 402
115 310
479 825
632 833
524 682
653 469
175 314
821 462
876 674
788 10
806 402
607 327
293 112
3 237
773 806
315 207
617 790
809 176
157 363
655 668
589 398
140 484
416 645
308 38
402 530
561 612
720 110
95 309
208 333
720 579
305 441
815 76
732 766
108 763
148 863
403 46
617 395
595 482
188 451
309 453
126 420
163 516
266 49
666 271
646 420
870 551
182 580
259 692
34 382
514 331
400 482
879 193
78 186
41 464
564 764
770 520
209 794
157 825
106 758
859 317
660 269
1 469
2 477
611 67
167 433
546 715
156 854
503 194
801 559
732 757
52 615
845 637
490 96
439 687
760 30
318 280
118 597
48 229
695 621
749 119
164 563
218 826
104 581
313 579
575 271
560 713
874 405
318 682
12 465
178 412
397 435
865 523
348 345
114 783
168 751
631 441
315 640
741 169
119 670
871 448
690 588
288 366
306 837
552 629
827 870
803 279
366 359
422 20
237 663
283 421
872 301
632 491
681 26
448 828
371 774
9 271
194 680
76 160
583 856
144 567
881 757
678 6
209 330
91 420
779 530
681 711
260 12
874 412
878 674
117 375
869 785
459 7
598 596
151 726
310 198
830 663
579 11
120 303
598 238
217 846
470 424
113 413
111 580
313 355
775 759
209 15
428 303
339 329
218 669
114 617
738 385
574 470
79 860
742 505
338 422
746 571
880 135
165 593
214 363
733 154
146 84
771 46
440 404
377 586
648 291
762 193
245 781
856 337
596 801
852 8
842 121
880 828
878 795
484 405
340 684
774 343
82 241
260 867
570 388
322 123
105 633
804 608
753 261
275 841
315 527
715 37
252 385
373 214
315 536
661 176
618 208
223 611
648 347
741 482
438 142
377 650
681 867
658 419
59 329
400 4
241 765
859 325
537 80
460 435
404 372
651 184
232 819
720 240
776 191
430 597
327 427
144 121
128 670
733 772
19 843
79 123
275 244
217 856
677 231
147 462
592 124
442 229
613 794
634 196
466 616
140 860
159 64
824 554
587 198
736 668
666 782
185 813
244 88
134 203
598 17
263 493
174 391
840 383
180 317
823 419
695 494
469 230
263 335
154 6
74 637
864 538
416 155
471 176
168 205
649 355
479 144
686 161
356 173
394 171
40 251
358 302
576 386
560 76
557 465
653 258
34 434
732 797
288 350
641 456
220 41
607 591
611 245
277 30
498 80
742 823
265 572
304 527
88 150
87 826
382 856
382 493
537 599
223 811
403 722
116 153
543 691
32 184
432 573
217 236
642 490
367 8
42 436
8 807
216 230
341 685
820 251
141 406
52 730
715 625
437 250
37 581
612 362
9 451
803 297
273 364
41 69
438 107
497 816
42 214
243 875
759 798
18 172
818 631
263 483
871 654
634 577
695 49
163 128
74 144
458 685
350 599
781 430
266 590
103 31
216 599
341 427
397 574
252 602
72 241
143 741
346 531
844 310
499 799
740 743
621 47
7 160
834 380
833 750
178 261
338 274
272 663
223 67
538 37
701 695
61 173
724 339
338 498
562 159
799 643
730 646
784 173
285 833
344 159
822 664
844 79
884 537
513 524
811 286
133 875
815 771
2 91
502 538
319 112
583 818
877 853
89 26
236 356
56 333
753 676
802 839
99 730
481 139
742 111
301 875
657 754
180 441
705 402
829 532
416 580
705 750
316 291
209 866
319 155
673 8
385 310
460 693
210 109
175 162
551 179
631 227
570 54
273 350
181 177
169 842
4 474
478 273
603 191
484 483
400 30
639 643
529 624
416 328
641 350
843 627
218 441
386 6
668 638
316 331
686 220
762 247
61 675
655 479
52 768
642 503
737 403
165 468
644 76
882 755
684 427
796 135
835 699
466 476
592 522
865 428
113 391
834 587
769 531
586 795
549 405
642 25
454 406
459 402
684 201
675 192
703 266
526 732
874 30
357 320
253 520
162 370
328 417
729 431
809 310
738 545
600 205
366 461
838 813
177 794
164 820
272 621
752 307
202 297
683 16
405 236
649 750
563 189
529 832
658 155
661 553
39 325
166 855
260 118
150 765
338 479
617 421
502 362
655 15
89 252
821 750
369 434
811 747
24 295
499 71
29 554
640 38
696 72
681 484
803 876
23 294
729 49
4 511
472 18
370 656
58 855
607 499
312 699
646 842
540 694
878 104
769 165
448 11
157 311
96 406
604 192
570 80
455 125
536 714
40 446
562 374
815 24
157 637
46 826
180 383
269 591
515 267
93 320
827 45
332 709
162 607
170 398
626 593
93 793
301 830
350 5
126 839
532 123
701 425
384 465
459 273
818 689
664 846
73 125
788 295
242 809
296 796
795 584
634 326
814 759
265 584
103 596
489 320
641 67
92 446
598 84
845 302
60 618
3 874
522 198
338 465
140 223
369 684
108 235
823 33
153 391
150 309
498 554
854 258
540 12
68 659
752 836
396 589
272 451
534 431
499 856
632 494
718 410
524 337
232 455
529 343
882 144
450 568
736 856
804 20
308 863
165 456
293 643
475 544
752 17
636 124
98 659
834 572
335 171
463 409
468 671
72 810
34 737
516 250
719 72
695 91
523 152
626 181
568 180
569 298
803 783
834 462
828 171
539 501
630 123
410 435
110 673
710 195
458 762
592 345
115 106
850 446
642 501
264 783
272 496
676 659
469 601
110 435
324 403
844 780
93 806
774 256
463 811
500 551
104 776
574 559
767 3
147 672
490 64
54 833
517 546
113 420
205 747
810 799
460 258
315 602
236 124
192 21
46 293
68 649
612 776
37 750
576 710
186 798
482 441
118 774
229 374
673 221
267 153
797 13
140 149
607 326
265 388
812 256
316 381
463 510
543 37
487 452
639 393
164 492
609 796
724 544
477 302
460 631
323 387
135 458
52 665
143 802
607 612
320 674
137 234
512 421
881 484
860 806
487 881
203 25
349 218
810 604
268 456
390 810
134 132
137 416
139 388
671 423
639 233
640 25
143 693
199 568
3 213
131 808
315 199
832 528
407 224
211 22
232 316
638 467
855 187
86 587
219 611
424 547
666 46
62 53
664 238
211 391
525 612
13 559
566 112
89 329
862 682
538 427
25 764
477 344
724 402
769 511
301 138
129 528
215 239
677 489
803 802
701 383
789 149
132 453
760 27
318 599
600 15
174 38
100 789
395 474
270 794
472 77
623 530
491 693
58 112
3 218
775 616
248 169
328 233
819 233
89 656
859 878
235 798
427 279
435 679
681 136
632 764
862 855
829 597
702 221
78 603
689 554
283 420
600 866
878 676
749 222
90 365
380 56
682 604
168 100
332 853
284 764
729 339
871 282
321 87
784 798
140 775
342 410
822 144
219 774
399 193
630 809
594 198
388 419
315 107
871 363
672 675
740 330
51 235
1 572
255 828
370 262
203 849
520 418
364 562
714 794
866 530
857 492
673 353
32 689
509 279
146 435
185 705
789 555
20 57
98 5
596 260
373 594
128 531
666 628
356 256
122 399
17 851
324 361
570 1
550 614
717 494
367 286
480 551
304 539
468 809
487 299
788 754
139 877
557 157
556 520
260 554
811 601
407 837
47 290
729 447
747 808
491 265
491 860
682 434
738 183
114 560
274 496
608 528
19 574
249 866
105 37
106 248
231 605
35 676
839 599
185 714
331 496
113 488
521 763
26 289
115 447
634 612
100 754
395 604
395 227
658 679
829 813
594 809
632 758
209 144
101 503
712 429
247 530
7 783
397 260
342 404
343 286
181 431
608 462
807 250
574 425
446 334
758 591
386 493
65 36
637 161
850 198
556 657
70 248
145 727
56 289
560 53
40 443
349 431
460 118
354 465
563 808
640 274
730 417
551 571
111 597
152 121
618 751
814 122
873 612
827 744
18 762
692 79
171 43
138 431
868 169
787 454
29 627
581 38
435 605
400 439
400 705
424 317
540 558
812 331
578 66
119 716
373 177
414 38
549 158
642 861
203 395
665 484
149 187
596 418
354 21
137 643
319 826
748 165
767 621
18 796
166 364
594 469
280 704
707 699
527 727
643 616
89 158
278 109
270 69
805 11
661 193
689 798
424 832
556 25
557 20
150 261
541 214
299 727
197 475
605 462
566 621
153 119
598 652
370 769
7 21
104 674
871 858
86 364
342 17
776 412
346 355
606 372
181 584
93 758
884 810
352 395
703 621
478 607
101 512
107 371
538 372
309 398
132 198
705 652
869 657
482 757
52 472
120 423
766 413
90 799
74 629
733 567
55 559
3 6
723 458
390 866
741 227
340 461
341 57
823 554
432 36
167 6
423 333
667 531
725 616
781 465
12 95
35 755
626 223
409 542
871 3
866 772
133 3
98 807
671 361
9 704
375 394
342 68
569 69
570 445
536 826
403 261
810 679
335 317
718 317
156 219
122 426
414 377
495 721
452 385
91 67
735 828
497 741
25 625
60 114
376 305
744 21
438 358
768 7
779 67
143 380
18 188
371 713
370 819
442 420
667 382
341 49
320 670
137 504
502 127
105 121
858 146
146 374
181 602
712 62
829 478
78 164
595 689
27 76
669 693
690 879
450 589
803 329
73 465
695 666
475 453
700 365
239 83
76 680
458 306
515 819
836 391
248 311
35 470
52 600
753 170
532 866
572 279
627 625
448 650
472 545
487 288
680 603
865 705
20 187
114 42
684 277
651 727
40 510
582 833
839 77
99 435
130 727
350 42
181 504
575 866
686 430
155 8
265 389
709 444
105 243
485 546
145 710
269 715
364 821
437 212
720 37
263 440
122 444
469 585
125 652
681 81
690 104
499 70
210 762
618 322
653 438
108 321
533 693
163 182
498 657
477 421
120 249
500 213
103 464
854 880
324 387
396 560
626 575
623 595
368 728
883 148
849 657
740 64
388 189
568 358
40 223
539 167
377 651
10 1
157 611
215 583
270 646
514 36
143 474
352 634
296 419
331 702
704 783
377 773
484 612
490 735
782 581
803 30
638 504
812 208
316 813
246 42
471 374
450 433
107 368
101 231
537 676
549 361
738 680
316 599
797 874
320 530
448 12
352 512
654 545
695 645
415 728
491 110
458 791
883 10
204 585
667 99
406 501
563 745
48 551
490 849
17 359
438 538
169 745
304 658
426 216
317 492
466 307
543 759
357 288
710 214
875 398
397 404
199 445
550 367
148 208
39 20
88 853
481 739
351 680
523 331
50 376
527 254
397 716
770 138
76 31
331 353
39 560
540 654
210 626
210 264
104 208
68 289
844 878
388 826
137 244
767 213
667 864
854 69
217 589
363 474
345 123
282 377
683 255
574 68
485 876
562 449
690 864
105 859
576 384
452 166
368 638
789 668
165 283
594 123
136 393
282 424
413 706
468 403
837 193
715 690
789 423
442 761
260 810
131 529
637 424
251 725
752 547
159 773
881 638
321 271
476 424
807 548
39 371
299 6
83 374
104 358
582 305
62 550
472 202
871 790
146 119
212 813
22 674
314 91
403 851
52 255
850 706
129 123
815 355
265 643
68 206
766 61
452 720
315 147
2 716
331 725
479 835
245 391
246 63
818 660
565 531
527 699
861 530
229 482
643 739
683 127
460 633
277 109
619 23
31 173
664 434
35 166
463 355
255 436
592 51
168 112
259 91
775 802
539 203
524 98
415 530
376 605
50 76
485 720
103 82
3 148
491 553
156 462
691 310
732 76
145 174
606 589
371 425
389 80
377 453
677 653
850 100
863 173
169 433
257 230
118 545
575 161
431 627
340 46
659 616
182 258
719 89
350 387
98 488
371 826
246 367
246 208
103 260
760 161
767 470
182 584
94 766
386 69
317 496
190 870
319 649
454 250
712 301
768 666
560 790
92 381
20 372
868 539
120 878
138 398
653 146
340 198
32 255
431 233
34 664
272 696
754 43
2 4
240 378
539 224
150 96
578 349
219 537
797 690
488 649
260 266
729 146
341 161
342 825
825 236
225 285
844 709
495 838
519 69
225 294
209 172
140 252
832 714
841 345
687 279
73 378
607 765
829 882
824 647
685 750
869 401
526 199
530 289
216 623
640 17
475 43
76 171
92 263
316 666
723 202
564 528
651 236
615 311
49 399
163 387
734 501
422 580
204 71
353 554
779 822
288 581
55 588
143 522
270 110
328 870
147 298
576 866
787 307
557 726
304 613
636 706
234 167
215 566
143 277
865 657
115 216
669 226
10 276
856 791
49 311
692 559
435 75
273 431
607 444
499 371
872 588
389 160
146 112
803 172
566 846
401 650
797 174
884 838
479 633
300 714
453 307
29 826
157 229
6 808
549 638
803 834
788 524
788 441
882 300
220 651
384 326
442 64
850 38
858 261
677 410
678 536
607 276
675 668
370 789
666 358
440 731
25 572
407 153
686 715
211 191
211 809
267 132
655 503
136 71
803 621
291 247
535 669
19 836
613 499
308 69
689 792
509 807
378 465
642 824
556 449
733 463
19 510
39 303
556 149
539 247
704 251
171 433
115 326
264 503
552 382
485 209
408 764
239 828
380 285
131 402
561 477
138 320
138 726
857 150
857 841
142 765
489 679
346 88
728 464
790 279
350 181
507 695
540 330
742 65
667 627
518 192
749 382
92 142
149 774
60 378
388 212
62 877
601 599
619 80
269 294
143 569
348 471
829 639
740 14
613 792
562 679
137 189
117 705
471 411
871 256
303 249
144 43
293 435
724 252
349 737
336 21
743 330
357 539
709 310
502 462
108 553
253 5
456 879
382 379
19 415
368 75
439 37
166 679
408 391
133 491
190 67
63 467
283 601
323 532
582 544
472 868
90 479
195 32
54 201
221 290
165 533
103 164
414 193
10 99
733 781
523 877
17 837
133 783
491 36
843 331
437 731
829 830
131 87
8 512
775 312
155 453
49 706
247 739
50 29
819 601
437 401
737 224
204 841
25 361
503 743
531 863
232 77
268 750
51 198
508 656
218 224
143 853
166 277
775 580
352 208
871 31
560 405
506 295
347 118
437 878
321 258
315 97
44 353
870 358
84 674
858 374
131 482
732 323
56 473
717 382
365 764
611 297
868 443
830 5
703 281
464 57
464 654
284 775
785 311
468 251
451 689
417 236
539 846
113 853
812 237
181 67
243 794
272 380
407 872
139 771
497 571
489 464
1 806
182 29
94 606
883 128
131 167
166 721
27 509
668 409
596 110
475 6
121 330
71 436
692 279
58 680
678 356
37 588
165 519
296 117
208 279
132 238
137 842
651 602
275 489
70 59
752 46
346 141
774 83
649 512
45 66
563 403
301 675
854 544
508 823
380 124
872 147
130 554
139 297
776 413
524 875
407 171
414 24
858 804
92 293
740 637
845 876
665 510
481 250
865 462
505 807
144 801
733 44
876 405
111 616
352 708
760 374
298 221
409 387
299 684
327 125
694 599
825 292
862 46
539 530
576 280
479 431
362 567
655 685
138 367
85 100
68 697
604 795
94 242
719 336
315 150
850 42
316 325
210 141
638 384
847 697
107 456
91 434
700 841
865 228
276 96
719 828
557 177
246 484
724 169
18 568
835 358
422 538
321 473
566 458
363 172
515 142
746 548
157 249
334 713
520 536
850 259
82 153
51 15
799 627
671 334
12 172
175 736
821 381
452 59
803 789
346 159
737 744
257 554
477 201
631 716
850 146
627 597
47 816
85 109
158 294
179 846
623 493
54 503
112 330
574 750
663 764
425 547
83 443
546 490
341 777
566 482
792 374
522 747
314 877
832 599
652 616
688 817
284 562
855 453
285 669
143 436
860 682
481 483
357 715
639 406
742 368
868 237
755 112
464 731
46 836
568 161
90 843
487 854
110 247
420 11
829 859
215 150
518 836
280 264
163 160
249 388
708 645
34 350
476 693
679 851
719 294
511 770
45 624
278 605
212 306
601 533
131 295
165 572
877 832
812 302
606 347
347 852
411 793
422 509
61 659
98 671
651 745
448 13
69 14
52 74
345 192
1 691
55 666
668 679
553 65
870 261
727 601
85 142
2 87
369 331
415 360
199 547
113 682
665 184
344 716
48 77
600 611
116 318
507 846
15 425
773 330
256 571
141 763
578 794
334 715
806 193
243 577
341 736
360 673
659 413
786 380
845 709
368 727
70 781
408 771
813 359
10 161
9 21
321 778
746 347
712 91
179 289
407 694
771 440
438 281
667 123
796 714
11 329
168 381
569 295
514 55
218 488
401 184
537 462
459 443
525 725
81 826
517 874
800 439
70 169
454 839
825 433
23 547
313 645
597 292
320 167
799 699
325 501
761 271
737 384
115 20
209 47
827 471
265 635
582 296
862 837
107 325
108 77
515 791
807 333
534 655
440 186
132 603
446 488
578 567
136 83
780 523
103 273
565 230
696 566
252 679
352 307
143 304
92 38
455 2
365 715
774 419
276 663
291 657
741 42
873 852
526 702
48 713
304 30
741 81
658 475
159 751
787 334
402 848
314 646
557 456
743 764
429 427
486 453
262 792
416 641
607 29
220 305
204 91
385 727
483 577
817 289
291 203
59 392
396 287
642 67
715 571
56 853
133 791
617 801
746 360
116 4
841 430
382 782
844 32
259 276
367 735
365 813
688 161
854 274
582 781
638 436
435 119
164 96
58 563
221 5
513 617
760 457
316 818
23 702
335 13
100 585
266 81
854 84
159 302
78 51
771 213
211 84
446 641
245 875
46 451
79 536
90 24
455 99
292 839
748 188
422 104
207 706
578 498
210 751
637 42
729 313
90 610
749 710
446 757
812 721
642 566
207 250
683 334
115 205
460 855
797 474
601 713
598 533
207 839
90 533
72 56
201 404
129 87
661 822
24 443
423 269
614 96
317 96
748 358
728 379
283 833
548 374
490 33
145 729
460 616
870 755
781 383
546 371
586 465
400 790
566 443
313 150
517 530
439 290
39 281
131 746
698 759
245 127
619 405
710 155
815 94
754 727
683 327
44 13
612 188
692 595
60 118
211 743
622 877
272 92
715 791
475 657
793 654
557 104
99 208
232 397
615 310
842 124
511 180
692 426
569 618
644 6
183 394
756 504
630 187
228 626
482 171
156 680
175 252
14 193
514 566
145 441
182 285
718 782
20 37
10 679
259 177
432 521
335 506
686 598
377 48
505 542
723 831
201 309
845 15
244 279
752 444
580 698
10 702
546 419
619 438
246 55
273 91
756 80
459 880
152 254
461 76
812 820
544 629
563 806
511 43
649 381
855 758
696 816
452 273
649 816
1 292
203 669
630 713
115 531
450 366
485 610
416 418
804 715
878 572
439 682
776 581
190 372
815 414
375 765
377 646
803 671
281 389
550 290
570 555
212 811
18 837
334 649
711 381
281 374
373 173
102 421
636 741
656 294
730 309
197 127
253 114
202 263
732 473
388 657
710 697
318 726
118 659
84 362
265 560
341 671
692 873
452 280
787 480
272 686
664 747
718 418
737 446
88 91
61 731
300 706
797 668
687 493
800 853
400 111
586 179
89 824
550 458
592 706
494 102
131 575
61 247
500 171
812 33
103 758
550 144
769 276
291 15
40 46
393 625
209 383
373 182
157 873
653 36
132 310
432 253
175 799
733 342
736 486
786 633
527 189
664 493
42 628
637 870
240 302
462 406
29 666
106 745
677 681
785 840
588 372
19 83
455 762
611 96
442 224
316 535
831 261
809 96
797 192
708 80
796 781
235 577
489 286
424 213
100 290
282 530
647 453
163 8
637 668
301 695
838 456
859 654
544 6
491 360
108 480
349 53
582 656
211 822
565 326
249 745
352 485
521 625
150 57
26 398
408 125
120 327
298 118
838 234
513 657
486 832
37 601
331 289
556 721
776 178
522 833
137 863
775 697
711 808
766 408
416 439
385 121
786 279
491 618
129 483
517 202
168 66
369 188
60 80
210 14
746 531
268 536
196 461
804 375
456 776
711 64
827 101
829 345
278 449
850 62
862 560
194 336
268 811
736 847
703 75
824 789
737 816
477 234
480 178
540 456
450 591
428 383
769 355
303 424
749 361
1 861
552 603
534 735
586 605
701 699
723 95
373 564
687 77
562 227
546 764
578 336
470 580
246 415
34 117
513 539
298 399
113 660
681 217
97 690
773 532
796 859
543 276
176 462
858 685
711 253
217 662
364 547
769 802
369 499
760 402
777 852
688 361
869 625
138 461
104 96
215 318
469 670
632 680
94 607
185 481
59 837
367 226
460 55
157 336
155 379
34 710
700 811
811 791
633 230
264 522
815 1
568 793
341 548
819 569
534 577
97 289
47 813
812 512
103 335
285 616
716 826
385 132
243 431
210 838
462 591
484 374
410 625
32 201
549 183
91 444
162 508
275 104
667 852
709 614
709 433
395 169
344 559
435 664
457 317
592 91
647 866
280 727
627 295
155 776
174 714
86 149
775 863
859 32
18 759
1 728
323 833
720 362
835 75
429 848
450 672
658 838
15 362
368 25
648 205
22 161
23 216
244 302
47 620
138 776
340 151
92 317
537 869
438 849
242 196
704 167
189 118
687 294
265 395
566 828
860 359
308 548
534 191
241 497
876 728
594 874
775 707
796 817
276 554
730 663
88 198
803 705
271 863
695 770
582 320
866 384
367 774
521 43
26 715
53 305
377 770
157 274
142 680
73 231
881 197
700 543
718 170
576 533
647 353
525 47
819 366
455 791
325 25
832 230
92 308
862 255
883 547
593 602
632 587
299 268
29 880
362 747
200 258
341 75
280 805
152 538
598 841
314 585
482 121
223 625
17 208
410 436
523 199
598 66
799 520
514 831
881 864
365 293
203 470
95 132
179 548
158 531
395 274
487 477
824 475
827 669
259 728
334 368
299 190
857 573
27 664
872 693
525 580
448 580
348 751
850 758
438 263
276 230
793 181
408 353
500 466
246 257
872 208
446 327
47 399
177 559
786 160
653 568
494 30
331 584
740 431
244 404
734 728
94 99
540 852
163 166
538 224
275 23
660 506
556 621
351 682
579 37
106 670
527 248
641 620
273 29
58 861
738 673
561 611
641 669
182 714
643 356
76 419
348 408
367 172
630 244
44 751
777 91
300 206
561 764
746 216
766 532
161 187
489 809
755 5
400 764
386 419
291 750
402 24
502 33
301 767
18 64
754 374
58 91
16 591
595 381
793 233
688 840
157 405
857 71
144 750
182 391
827 862
478 860
3 368
593 589
407 408
845 148
870 421
48 492
304 305
489 251
514 595
343 63
571 71
883 880
220 682
40 267
740 840
704 306
388 59
444 200
122 805
787 180
126 446
688 186
459 308
468 854
578 679
722 832
851 745
157 509
340 504
167 782
860 617
260 311
207 541
596 41
373 773
546 271
377 30
32 680
548 798
769 20
128 156
165 9
111 406
187 577
167 160
117 256
175 882
524 474
876 51
884 622
126 235
466 358
221 354
701 739
432 153
369 751
135 328
672 290
175 652
551 38
640 731
803 825
829 568
609 396
222 852
866 802
786 573
544 423
598 110
560 633
582 441
73 132
181 614
600 93
168 144
810 739
760 458
321 25
227 504
122 14
437 768
621 216
469 283
696 337
769 109
494 286
738 842
244 541
766 440
472 550
50 831
876 42
145 462
199 791
539 699
38 206
856 6
211 572
715 95
489 796
878 358
570 543
516 378
150 802
644 864
595 214
116 616
317 14
11 57
522 317
804 445
823 499
456 216
537 81
738 722
280 625
830 852
851 305
106 754
766 188
605 716
81 867
299 774
682 343
573 345
153 547
27 451
246 190
84 205
212 506
667 121
269 386
54 155
4 612
385 494
149 381
647 402
870 148
546 227
115 759
594 114
147 24
595 530
389 63
429 152
657 744
530 559
677 738
34 830
422 537
313 187
131 786
776 605
804 547
800 158
766 274
267 684
416 663
400 364
113 499
114 451
596 504
565 610
701 554
779 130
245 363
48 864
197 174
1 744
613 310
681 30
275 355
556 156
332 848
702 83
116 18
582 275
90 629
346 641
130 626
97 379
812 345
478 808
262 245
231 5
855 512
72 39
460 808
705 418
537 435
608 216
40 693
224 721
637 327
486 620
500 518
763 286
744 102
17 735
491 51
143 602
275 360
773 425
205 774
596 374
427 670
134 550
832 372
72 223
201 599
143 284
788 42
827 81
277 453
204 747
206 14
500 178
534 808
768 214
272 75
508 538
823 624
684 747
701 830
883 644
499 177
483 532
407 695
598 229
829 87
117 247
749 391
804 57
686 61
686 255
725 238
583 693
485 618
396 832
662 243
844 39
883 401
611 308
702 520
99 488
411 625
332 155
18 497
507 488
695 38
823 728
703 206
556 360
99 121
834 252
874 817
103 128
125 95
609 274
183 355
114 413
667 843
267 655
305 14
655 367
380 312
20 535
718 426
151 593
170 615
58 295
390 641
835 276
514 877
665 91
697 745
804 762
805 602
662 61
791 545
370 639
696 629
723 449
335 464

975 5963
473 305
185 101
369 448
422 330
407 770
897 448
890 533
657 668
530 418
551 120
717 848
460 255
800 868
506 397
624 600
8 87
743 801
601 888
387 189
539 303
833 14
173 549
967 447
515 710
535 283
804 744
400 222
311 296
24 794
745 816
282 222
467 86
202 425
193 570
164 109
596 104
10 631
173 233
174 194
325 446
865 89
849 572
656 92
836 585
370 507
414 370
673 616
509 900
872 664
548 399
336 469
341 556
3 899
133 848
696 644
384 746
207 964
412 184
220 925
26 822
765 759
165 417
863 286
47 845
199 134
551 493
648 212
759 78
691 726
456 805
826 847
421 105
209 711
213 151
431 192
572 450
692 859
967 419
861 956
273 179
37 42
809 1
195 548
853 328
306 61
183 705
331 594
903 712
622 759
201 930
644 740
836 524
495 945
225 149
733 53
561 364
253 208
590 721
662 226
267 118
662 349
577 843
253 50
352 911
24 464
479 528
299 182
228 784
972 663
85 602
671 295
552 949
937 841
751 122
8 144
545 397
963 906
388 149
372 932
549 606
682 177
20 440
481 528
647 621
772 450
739 177
498 545
866 276
250 49
195 848
438 704
744 567
126 599
553 471
737 658
511 27
342 739
210 645
672 658
823 501
240 692
439 460
353 907
720 969
2 8
221 180
205 527
616 958
133 824
917 338
974 797
307 742
270 868
629 841
331 954
492 730
466 863
720 646
702 826
684 481
99 835
484 271
855 264
646 813
950 471
591 592
150 798
63 43
603 110
181 956
756 512
218 179
129 642
313 349
668 465
545 26
88 731
836 264
218 290
347 586
5 384
712 310
65 189
126 774
821 878
215 563
91 577
479 494
320 365
108 388
71 16
218 580
321 885
468 12
549 226
352 557
322 40
3 46
410 52
448 239
657 29
849 821
616 764
474 786
331 747
231 914
940 682
478 761
128 604
852 302
46 477
672 924
36 275
771 832
96 110
705 391
957 629
944 761
515 327
606 535
76 518
392 605
414 178
272 679
464 191
363 963
401 674
935 293
441 97
712 228
414 876
897 342
812 327
6 394
134 351
357 366
794 889
65 895
492 282
420 719
441 684
104 274
485 667
381 858
152 619
653 568
436 480
952 894
834 382
624 918
41 178
278 289
891 593
794 178
577 290
432 351
287 464
878 824
45 925
912 88
166 807
67 522
201 368
614 204
72 227
104 660
536 289
132 724
872 665
432 874
536 336
85 868
519 439
46 949
968 795
306 926
271 848
661 216
826 264
741 155
621 693
911 145
228 433
396 632
237 61
485 703
749 162
215 522
506 17
190 655
293 93
922 527
616 376
361 879
473 889
139 696
756 461
452 592
684 811
921 495
633 821
546 964
84 123
749 631
307 468
577 270
316 342
608 740
352 418
44 424
814 60
272 291
127 773
457 873
205 763
794 424
558 65
488 945
510 230
975 408
543 164
82 424
410 595
621 853
332 928
303 768
686 455
750 762
626 956
295 18
214 166
380 154
588 405
507 25
661 478
129 677
152 706
652 971
431 272
8 385
526 839
180 135
576 708
556 554
709 808
844 493
523 768
672 70
303 40
36 725
473 853
852 855
782 958
876 45
643 340
781 254
197 503
648 269
652 365
836 722
356 900
505 326
736 454
98 719
581 290
747 70
628 707
244 212
444 406
951 449
483 773
559 652
232 515
497 673
923 721
376 802
675 16
141 692
578 893
560 208
427 843
121 722
379 562
441 219
15 753
613 166
601 678
237 850
879 103
368 527
333 383
100 94
552 801
80 34
787 471
915 10
229 528
967 806
57 871
100 771
853 203
636 205
527 14
454 782
593 646
7 435
588 782
737 588
790 566
390 832
635 161
805 27
939 24
336 534
687 136
946 50
412 873
793 782
12 150
867 889
604 344
936 770
767 781
200 29
219 875
92 27
941 416
101 323
484 349
432 240
702 727
707 895
634 965
711 927
287 707
551 566
458 963
183 402
155 801
582 700
417 110
664 217
635 638
836 319
879 123
13 847
191 133
753 344
911 45
403 363
740 384
319 519
236 167
919 468
688 698
792 744
83 733
895 858
718 961
203 276
259 6
244 584
649 946
689 717
875 294
253 646
236 468
294 572
192 82
362 270
624 117
58 519
794 179
244 878
634 434
796 965
231 32
491 831
843 418
295 140
67 636
452 930
219 937
201 230
455 809
426 773
767 848
702 913
461 829
318 926
943 741
54 948
515 418
737 246
168 535
388 744
210 142
530 945
309 362
238 320
883 141
897 151
635 685
500 618
307 758
306 927
436 786
458 886
792 106
594 330
555 189
657 3
241 168
494 362
891 210
273 885
460 364
639 694
531 131
199 17
939 845
518 655
903 919
623 606
240 93
791 802
540 98
342 618
13 47
416 583
738 22
282 567
205 920
131 973
822 553
594 116
608 741
560 632
619 39
154 776
634 539
874 10
612 922
760 109
673 522
466 776
699 218
63 851
335 542
267 854
150 641
937 847
241 362
731 75
751 900
882 245
76 188
323 493
507 24
754 59
699 646
973 283
8 307
768 285
401 292
778 746
156 10
69 743
74 655
212 273
531 159
683 936
786 435
567 178
865 618
493 617
725 206
488 917
417 842
374 694
969 502
883 664
442 350
183 224
510 33
295 655
559 286
457 772
763 800
614 149
676 824
953 405
556 278
275 750
846 123
828 962
775 69
542 848
319 217
67 112
394 224
132 572
355 653
281 562
467 967
638 840
820 880
54 440
661 384
377 935
569 33
497 973
648 944
346 340
781 716
912 773
265 674
674 606
38 473
95 297
957 94
173 591
127 152
183 666
957 463
546 922
390 611
378 721
818 249
399 753
736 193
76 802
358 589
799 112
196 475
738 514
558 955
680 407
779 93
525 898
446 933
966 796
627 36
419 555
169 668
916 62
212 806
787 276
91 227
938 360
886 674
298 971
595 563
599 11
399 75
938 251
544 670
697 112
146 406
139 944
967 154
421 114
443 518
435 170
458 201
614 932
934 771
887 737
253 645
514 529
787 543
45 761
11 553
853 290
710 245
171 815
260 633
197 95
371 356
596 107
656 192
72 775
102 167
84 694
802 617
775 862
343 312
236 808
96 251
802 843
909 758
674 480
551 938
272 788
670 12
360 109
436 898
425 407
927 433
668 484
160 179
273 884
661 553
632 695
757 385
427 495
522 752
373 700
400 384
247 772
202 135
776 202
744 734
202 22
4 288
804 271
918 275
425 670
763 584
969 473
165 708
376 443
438 807
390 698
546 676
783 845
805 901
457 879
15 840
239 302
332 764
664 965
811 630
208 449
741 761
906 782
279 768
618 116
489 440
417 203
43 273
814 766
263 268
542 132
154 717
873 211
217 599
309 111
863 968
891 403
630 892
632 501
195 281
198 744
247 85
877 958
270 148
673 407
218 508
117 746
8 18
307 679
18 951
203 497
520 397
619 553
792 801
303 923
523 926
221 382
246 211
933 385
442 492
683 742
174 31
684 920
432 281
343 557
783 816
942 147
653 228
837 71
417 516
258 300
262 364
89 848
202 593
852 584
666 192
659 889
436 518
664 801
337 207
656 325
457 758
82 285
391 703
73 550
21 334
370 224
691 806
696 703
570 856
256 415
664 268
683 88
557 703
195 642
21 770
961 463
325 608
454 780
4 75
939 400
762 789
566 721
155 94
621 191
182 821
717 748
957 93
282 855
130 66
967 356
823 464
306 192
509 455
594 623
4 399
546 778
396 465
269 882
447 707
960 252
923 480
158 623
948 853
728 759
127 735
607 577
168 430
489 86
914 839
310 68
168 573
741 672
300 42
210 970
735 558
414 38
811 958
564 798
548 407
663 934
30 97
17 838
141 952
796 674
441 102
159 532
682 963
434 457
266 298
488 470
39 327
280 450
470 437
313 382
316 555
593 343
646 475
136 16
653 565
948 215
754 290
478 98
597 232
431 40
410 404
943 77
35 257
108 122
960 395
107 178
342 703
734 109
187 762
301 270
567 535
559 499
230 271
109 642
913 694
889 855
6 926
23 532
728 578
654 878
78 60
121 800
803 481
826 66
77 252
189 770
146 567
257 374
90 232
567 366
608 357
129 956
367 772
940 348
68 679
664 422
8 650
104 83
639 973
441 860
759 794
303 307
839 285
677 450
181 659
402 307
187 971
919 506
188 352
578 184
445 399
718 944
705 29
478 376
303 887
109 580
101 884
852 28
672 650
912 153
953 812
241 962
735 566
263 338
175 527
885 374
970 724
206 34
957 954
870 69
201 482
115 100
967 661
214 616
751 307
879 366
220 313
911 419
288 586
21 666
569 410
9 243
656 806
455 218
630 748
49 280
657 600
740 459
959 811
526 245
963 573
913 272
219 258
153 683
303 53
307 430
277 714
558 565
463 819
965 733
969 666
662 727
575 590
22 225
282 18
545 664
75 617
524 818
83 98
671 818
488 513
914 721
665 237
111 385
508 435
400 742
721 582
278 914
210 340
452 297
669 448
90 817
953 230
783 847
160 798
481 854
358 864
234 786
218 191
812 637
467 660
844 46
759 413
118 271
49 788
821 874
497 302
122 181
692 249
397 419
499 773
578 224
890 190
70 844
348 550
190 629
302 147
754 624
889 495
966 37
332 766
328 409
108 373
46 118
721 700
337 511
694 477
699 457
860 124
306 660
556 244
103 519
202 852
688 19
441 101
750 288
255 834
555 338
403 33
78 413
427 231
172 561
85 368
503 1
260 412
751 668
612 246
209 589
400 422
929 677
198 354
183 619
127 297
634 223
13 8
785 55
839 892
861 964
395 968
53 936
64 415
12 87
303 688
81 572
241 950
148 486
439 161
595 439
24 68
67 526
487 661
879 631
940 793
529 630
287 898
91 261
812 227
210 141
833 725
897 123
76 550
516 795
268 413
451 26
300 301
263 443
411 553
907 364
750 316
826 276
557 439
265 397
217 900
424 746
207 737
539 480
529 347
627 924
595 710
773 848
193 334
69 435
95 355
45 586
523 966
339 66
537 515
207 123
813 359
63 664
714 508
205 759
427 581
139 201
399 555
612 822
793 116
615 189
519 443
850 14
333 873
548 345
971 878
755 951
671 157
731 311
662 432
370 250
204 373
722 502
9 353
792 248
742 588
545 384
711 535
234 831
492 463
167 161
812 666
344 366
916 648
155 342
691 648
708 618
159 914
398 254
915 464
207 618
377 347
428 945
51 150
610 955
259 421
886 852
796 68
619 555
763 791
874 759
781 361
487 136
783 495
753 818
205 855
689 522
616 630
892 818
221 30
663 107
596 62
192 268
233 432
534 252
380 528
35 87
108 320
422 789
577 520
513 288
70 463
314 117
315 276
154 922
965 306
380 758
72 63
953 410
817 251
38 679
349 958
599 770
466 634
964 284
659 454
73 949
225 850
962 365
214 198
939 103
138 970
759 495
137 178
564 239
855 824
507 150
750 214
43 840
85 46
342 951
38 476
611 490
829 447
957 234
294 645
282 853
13 227
325 785
438 592
128 738
737 802
406 45
83 400
305 958
22 125
178 279
816 413
452 836
20 645
955 34
774 538
188 947
628 449
390 418
817 150
306 1
609 276
656 675
370 179
742 859
855 408
345 599
586 703
189 734
137 355
548 631
829 888
96 653
152 655
635 848
851 783
399 216
19 97
702 230
119 80
569 179
787 100
165 280
187 816
762 708
943 361
636 237
85 81
70 655
940 268
815 291
601 243
587 384
230 592
472 424
22 844
946 240
417 902
568 706
466 476
785 336
611 962
675 353
420 332
756 227
480 430
690 305
230 254
823 79
92 251
75 367
186 112
404 175
63 938
657 297
107 542
717 345
286 94
738 775
107 828
510 651
467 896
414 845
511 447
108 517
683 21
484 768
252 292
904 213
768 553
551 491
668 133
969 531
259 473
957 18
563 135
412 745
86 496
740 533
162 871
783 571
174 6
315 188
210 810
966 509
515 87
862 290
828 502
372 42
546 675
750 835
628 283
974 779
686 127
453 504
22 263
140 758
20 812
628 57
510 332
524 332
197 628
521 722
560 184
172 182
447 508
287 647
314 291
578 564
337 898
121 795
696 567
234 538
247 304
622 292
143 245
638 562
930 347
811 68
557 600
401 280
4 963
373 748
262 527
13 907
587 362
551 399
644 243
331 40
139 83
613 722
576 772
38 433
705 916
482 39
785 824
442 649
771 430
184 532
4 406
176 563
88 351
110 924
184 882
421 587
761 120
35 201
370 712
791 262
478 519
539 178
530 864
625 682
461 880
121 507
712 818
803 93
487 732
414 207
576 321
244 503
73 975
842 524
617 772
768 770
76 623
426 394
281 389
517 538
459 462
918 715
869 55
752 779
253 306
915 819
864 921
432 533
640 490
575 202
557 555
473 504
385 818
138 602
221 923
575 424
195 532
626 496
721 460
878 746
965 558
183 609
277 748
101 936
225 50
396 238
757 829
856 226
69 283
37 381
738 218
938 520
903 526
690 89
411 408
785 363
698 700
461 562
944 724
895 481
704 244
63 723
85 347
547 286
380 565
415 214
478 882
84 525
234 158
163 150
208 509
461 118
837 747
452 271
104 860
826 143
708 239
346 40
560 430
445 932
750 401
636 8
621 348
52 59
91 901
406 928
725 334
307 861
200 779
352 882
260 45
928 31
260 188
557 834
905 289
9 884
421 463
133 475
49 528
30 877
696 265
919 177
3 112
79 773
154 492
376 308
28 453
467 95
1 631
406 206
196 758
287 217
698 963
304 238
969 236
163 37
503 276
41 641
203 37
362 814
759 844
366 894
573 724
354 862
6 191
817 258
915 909
472 93
498 481
775 137
285 413
747 734
412 367
668 706
137 588
319 98
711 668
200 506
649 315
341 791
33 206
422 504
190 100
691 513
588 143
640 752
866 408
319 550
530 163
554 45
520 405
511 927
520 100
943 98
156 880
503 555
969 739
737 655
478 383
598 412
657 78
796 951
589 924
919 201
396 404
555 933
583 1
850 347
236 618
466 227
250 698
241 801
337 342
546 386
84 581
638 228
612 653
85 608
215 130
662 455
738 697
171 344
355 519
45 447
194 923
825 811
24 70
546 215
953 207
461 352
642 356
557 454
267 696
769 734
740 103
686 901
160 211
769 591
318 164
57 958
296 386
939 424
868 274
230 831
616 737
934 109
277 870
942 616
635 470
212 397
909 289
70 871
477 895
126 606
967 380
236 394
933 60
257 932
589 896
610 509
371 435
260 712
126 139
444 428
608 885
784 224
896 426
434 553
37 668
115 212
727 485
334 329
457 762
242 832
59 666
154 698
360 395
347 135
726 385
363 877
162 240
971 618
219 449
310 952
42 330
647 283
156 470
836 336
200 562
959 106
653 262
603 148
207 810
392 954
942 827
744 94
433 857
783 9
915 385
740 490
339 595
639 740
902 536
27 254
890 330
414 757
479 356
597 65
882 553
601 439
644 901
701 84
119 820
482 925
729 388
164 113
391 330
456 399
707 694
148 289
709 108
605 11
59 107
816 366
901 939
388 641
633 412
713 468
767 617
897 141
661 92
823 696
612 701
160 974
68 847
720 278
778 506
602 230
964 385
555 228
601 934
843 830
377 672
566 518
661 754
576 514
79 625
333 929
655 373
302 464
911 894
498 755
265 594
517 356
372 170
852 856
397 166
115 675
467 94
306 224
214 900
675 658
44 451
317 593
183 8
23 931
851 34
279 650
16 834
525 592
712 41
750 737
591 499
760 821
962 433
263 436
967 672
604 894
272 777
314 508
43 214
171 29
79 787
803 592
204 419
543 658
583 609
816 692
154 35
969 475
610 547
352 799
114 658
230 784
683 834
705 910
208 610
161 572
717 735
463 859
782 933
627 782
352 748
173 402
491 243
292 480
597 859
322 779
418 586
473 653
58 549
184 856
904 625
227 922
456 376
828 496
335 160
598 750
659 898
396 356
666 70
245 723
652 53
869 270
414 320
850 122
525 658
242 714
43 391
427 868
798 373
584 161
620 679
422 601
544 799
584 48
712 69
56 856
46 843
472 520
787 339
303 509
910 655
34 642
792 362
540 664
285 819
434 463
421 211
536 895
119 26
303 211
397 298
851 931
165 222
800 19
666 964
479 259
655 268
904 928
304 668
514 547
507 715
383 116
793 616
938 643
540 243
47 429
487 26
718 690
75 924
946 575
304 506
47 274
921 381
98 710
207 88
46 94
49 394
639 101
415 111
165 628
434 599
612 838
888 486
785 568
35 41
805 565
941 437
92 189
77 303
633 391
869 625
533 12
209 8
281 395
416 430
823 855
403 152
121 821
237 843
72 73
711 615
324 525
243 631
377 937
13 715
789 566
919 747
579 158
599 323
787 186
162 45
521 106
740 378
62 330
799 887
618 858
624 787
561 222
579 730
800 285
286 888
583 2
573 40
729 282
611 858
672 694
656 218
434 744
278 857
796 670
366 518
261 762
444 544
546 600
214 714
426 586
867 864
470 770
168 832
632 229
677 917
552 885
4 720
698 711
267 626
489 550
347 384
172 557
284 407
322 94
307 814
367 562
575 121
355 26
639 778
540 887
579 98
908 755
696 45
872 722
639 616
786 98
218 544
348 518
791 900
689 710
343 797
130 480
114 819
788 877
109 748
554 907
315 149
691 369
568 547
610 418
760 589
261 828
500 14
905 804
427 605
889 858
376 131
110 692
336 529
923 737
963 460
233 175
250 791
205 305
618 26
896 258
256 97
486 106
884 249
616 39
780 908
113 547
538 746
812 509
45 490
363 935
110 240
360 83
677 794
873 795
303 472
341 789
905 16
467 739
267 751
74 515
702 129
691 688
426 746
623 385
425 196
174 585
235 685
397 278
331 158
351 211
877 135
554 845
162 866
573 80
543 590
494 907
687 216
121 17
199 594
187 394
425 529
10 641
657 366
552 68
770 135
809 443
448 973
54 841
961 641
73 305
435 950
831 528
104 617
306 713
757 593
201 485
438 458
918 960
461 939
56 635
314 191
964 149
38 526
185 202
883 31
974 458
846 768
526 642
229 770
307 584
879 184
593 103
77 846
602 223
142 826
7 692
821 224
335 603
626 120
402 110
263 863
88 887
431 393
753 123
644 254
539 448
639 595
35 801
636 285
853 17
621 213
342 542
880 465
652 519
601 89
363 122
168 124
207 261
482 772
969 366
736 623
478 488
942 42
12 27
468 437
611 543
390 664
46 462
236 584
315 443
64 761
747 348
419 329
438 39
756 38
512 764
309 314
475 46
648 323
727 340
713 318
560 167
669 475
267 875
259 811
688 251
321 486
845 11
702 492
954 645
104 144
363 653
185 305
277 934
246 373
504 660
526 811
200 865
624 788
736 958
340 216
221 299
535 382
953 909
520 796
250 431
531 824
254 367
558 167
512 779
433 86
434 745
31 114
310 94
132 874
349 764
43 433
885 474
64 628
139 98
802 830
472 867
684 446
812 139
962 568
923 802
860 159
953 299
717 258
185 145
817 372
777 966
410 949
267 629
4 864
333 748
293 334
869 667
146 32
575 457
319 527
565 291
833 107
190 824
170 716
890 223
584 882
880 25
610 238
867 229
359 385
696 507
438 560
60 98
304 564
675 519
370 813
315 148
421 173
127 923
629 246
192 811
358 52
669 855
737 157
104 526
127 590
462 481
119 709
140 605
769 11
423 462
345 518
751 138
555 407
968 772
343 132
163 610
648 642
333 430
392 320
674 106
218 94
243 385
601 535
259 513
425 297
163 782
488 327
464 228
134 594
431 500
930 533
825 313
22 659
207 669
647 32
459 932
316 811
969 535
472 25
455 304
786 385
294 663
800 215
303 908
804 679
369 512
155 141
684 796
447 838
788 770
975 220
813 721
62 814
545 622
509 235
554 654
301 159
451 334
713 39
310 407
883 339
186 161
520 641
215 302
287 877
720 660
656 524
337 228
875 612
428 475
363 898
289 123
552 959
115 313
171 123
858 211
436 109
219 279
574 655
315 824
100 50
911 252
22 252
274 34
203 136
191 443
692 124
730 171
640 735
364 925
905 237
32 143
621 67
731 527
221 597
740 653
317 98
477 892
758 407
463 825
669 638
452 558
153 975
960 457
502 320
847 340
350 276
45 826
657 440
70 151
44 502
656 414
400 619
875 576
253 492
475 94
295 203
759 934
342 290
396 846
509 819
86 807
489 703
109 382
823 710
683 189
664 117
224 572
445 924
172 948
29 93
886 713
741 218
464 378
548 50
929 960
310 729
919 741
901 42
363 541
380 405
199 179
860 879
598 31
247 167
882 834
591 926
97 907
758 320
341 256
587 104
679 600
536 666
88 843
792 947
853 278
13 448
735 743
546 884
747 29
783 898
456 1
376 216
33 521
127 597
699 60
546 446
12 493
487 589
551 366
909 714
54 195
82 760
564 660
233 892
531 690
388 817
65 964
229 857
459 204
406 821
669 113
13 749
593 319
526 917
364 854
403 370
613 615
213 23
325 589
959 591
403 739
596 584
965 637
492 65
221 723
890 220
491 123
973 799
687 81
857 830
218 832
115 676
442 572
771 123
83 435
853 667
927 356
805 792
440 836
339 138
852 144
196 257
664 723
59 27
166 861
7 347
423 71
803 136
414 821
112 798
263 147
176 59
836 492
893 898
348 281
242 820
30 53
713 501
663 963
78 289
91 86
261 174
445 595
599 950
939 21
333 318
673 161
927 764
234 709
792 273
544 690
617 284
720 19
939 307
597 435
377 720
532 450
331 3
743 894
911 323
35 775
456 959
473 839
633 737
530 65
568 372
95 361
662 701
670 908
657 467
606 14
442 323
339 57
757 19
376 50
750 836
736 274
390 333
102 123
235 422
828 721
121 595
524 329
483 606
564 733
778 95
427 7
379 270
337 790
512 94
548 795
242 284
119 907
164 679
906 428
782 251
15 200
602 9
19 269
95 30
441 611
852 635
299 525
709 798
731 526
109 878
227 511
820 328
307 439
23 435
583 27
473 972
614 759
943 243
217 471
946 4
398 687
718 544
97 42
80 952
953 577
790 108
884 895
358 98
733 110
348 12
441 406
716 814
779 330
376 189
287 947
941 434
141 701
366 843
183 275
940 110
7 65
608 198
78 238
816 51
347 770
323 5
167 908
233 784
416 272
939 454
377 829
273 522
713 888
869 357
13 601
915 389
972 114
891 2
213 114
588 34
644 220
493 802
795 856
725 407
339 708
247 855
494 756
605 722
127 306
113 526
44 806
939 694
942 763
168 90
520 143
306 248
61 354
249 898
912 216
378 585
823 323
880 955
185 731
184 898
392 923
710 819
355 454
59 111
963 469
72 242
237 744
81 772
456 224
461 113
427 929
842 700
154 401
872 311
699 919
693 311
107 854
436 768
661 201
739 681
77 50
565 877
547 814
930 186
713 570
823 549
906 179
128 287
332 87
172 552
491 176
402 37
422 32
264 94
380 442
938 2
260 42
193 89
126 845
308 318
499 889
105 774
749 469
691 945
41 46
306 374
810 746
672 358
805 182
398 756
754 798
244 880
672 725
913 797
948 663
317 621
176 847
410 416
804 208
309 606
295 479
876 578
551 750
63 506
238 334
883 151
367 46
185 179
771 724
974 493
673 838
750 340
107 818
560 496
337 809
946 921
911 373
206 565
891 383
689 159
241 166
169 897
9 40
589 739
765 651
203 238
192 605
222 354
19 240
777 444
472 108
118 249
657 807
421 494
773 857
975 433
260 947
433 289
109 572
573 109
813 702
602 975
932 220
482 429
27 742
267 311
451 530
145 663
516 561
554 652
837 507
234 64
107 722
624 504
241 804
206 42
797 925
943 643
712 875
140 748
15 960
436 555
774 375
560 815
64 958
73 672
162 446
617 931
410 713
507 327
569 704
392 495
842 839
732 57
333 336
825 625
581 570
656 911
608 392
661 370
687 615
626 119
554 488
297 947
294 39
887 124
434 346
274 435
85 19
491 292
459 834
207 480
789 116
235 795
735 94
38 314
278 373
883 898
22 782
619 846
503 130
774 791
442 356
947 405
811 798
633 56
177 34
713 112
287 45
128 938
76 816
256 197
131 561
79 143
465 367
789 156
614 131
64 619
209 155
543 18
626 580
918 594
967 727
803 270
910 589
437 389
371 641
907 685
211 808
431 731
142 874
429 373
328 588
132 324
388 238
962 151
603 235
644 447
800 853
852 399
190 944
420 957
625 34
473 781
570 677
106 814
403 566
541 484
467 363
37 5
148 773
754 616
421 311
294 527
813 629
395 932
782 784
918 464
706 630
232 829
316 659
913 816
787 747
813 279
689 777
448 921
412 892
452 945
219 582
217 158
64 681
176 819
323 676
474 568
590 746
172 455
304 87
551 709
199 294
897 23
756 436
314 131
662 384
573 827
833 770
110 706
524 481
67 86
1 286
241 351
449 650
410 944
33 75
185 112
593 19
81 455
322 43
345 378
510 880
207 789
298 211
293 476
631 178
83 904
544 374
951 779
511 784
866 353
204 888
79 636
155 388
675 861
731 585
61 50
812 782
635 405
503 605
144 802
787 952
761 367
942 276
808 216
499 519
61 276
7 497
672 359
914 476
849 422
444 371
913 796
591 850
511 293
836 819
309 761
646 564
854 843
695 25
129 120
647 154
44 109
872 630
966 596
148 179
205 446
613 257
394 223
965 388
626 908
45 486
360 456
656 533
169 742
24 159
498 106
765 424
124 16
473 280
460 50
125 555
551 19
683 155
425 191
388 53
182 855
263 887
610 572
592 223
763 6
394 885
200 956
498 641
616 356
434 153
878 676
596 477
875 366
144 782
740 540
192 26
725 160
946 143
231 155
527 926
417 955
22 210
80 847
838 16
254 347
123 848
490 53
953 827
867 625
872 805
672 609
310 507
295 621
687 427
749 798
128 894
646 528
967 682
645 493
608 60
190 462
263 262
198 949
452 333
671 298
177 594
95 580
59 594
590 265
648 560
742 580
569 18
661 482
318 223
542 31
593 261
602 509
160 88
218 450
556 542
722 818
142 203
278 411
602 287
575 736
247 915
3 33
559 92
325 182
457 70
554 956
956 120
761 144
141 228
861 181
74 217
634 497
325 488
371 566
796 695
514 96
755 716
24 748
55 433
944 412
194 727
841 868
524 367
286 14
671 377
825 841
651 965
800 537
232 203
204 401
208 84
741 118
851 650
543 704
530 545
824 382
751 941
310 557
960 846
319 817
17 668
90 378
42 249
904 148
377 654
375 367
951 806
753 27
471 952
23 352
575 695
341 269
507 637
804 762
457 401
311 474
153 936
236 950
121 92
514 435
617 681
733 430
974 936
600 157
487 283
128 536
718 429
816 405
466 18
778 610
182 105
870 58
396 527
954 97
633 422
785 825
309 395
239 78
229 100
472 679
91 79
459 483
96 423
251 773
458 681
649 256
498 214
238 535
91 877
937 541
124 211
536 829
13 635
242 437
26 710
902 623
796 486
56 337
83 632
725 425
386 881
688 773
122 65
568 347
667 401
444 46
946 232
325 253
44 667
409 306
295 874
611 893
491 811
3 279
154 137
46 411
791 327
318 827
180 824
6 916
689 22
362 822
314 53
764 573
955 292
162 80
556 96
684 45
431 956
234 558
328 679
918 650
453 809
854 359
696 769
700 857
77 822
578 381
118 418
263 737
467 599
198 878
687 675
446 727
29 469
520 412
173 746
805 485
58 858
921 415
463 801
28 258
89 276
550 443
792 895
876 77
911 638
643 244
836 739
382 877
607 348
754 768
117 192
427 275
548 29
520 566
969 177
295 509
893 818
694 269
902 815
241 683
221 137
556 181
152 19
640 248
879 481
648 723
557 285
778 90
587 806
713 615
579 394
891 428
817 513
18 486
315 828
726 350
838 772
431 694
623 700
317 782
344 375
946 719
346 781
928 94
530 254
325 514
902 710
183 533
536 642
151 251
709 573
71 320
938 653
575 624
335 511
434 924
164 245
738 206
598 546
636 721
715 706
336 801
67 915
672 543
861 86
702 970
619 396
909 960
242 665
119 765
756 82
261 418
603 289
128 121
202 806
21 482
168 874
189 832
280 973
76 502
294 389
495 268
864 193
803 641
533 488
314 446
941 627
752 658
308 144
897 501
460 123
47 565
535 832
609 828
403 493
961 299
429 678
670 508
863 189
255 660
200 870
117 723
674 594
969 578
921 743
711 34
7 251
217 278
936 292
312 638
47 478
141 37
17 223
735 973
168 93
331 443
540 301
909 32
516 934
37 357
545 690
32 619
309 933
124 868
503 959
607 549
903 292
90 679
344 715
573 486
543 210
487 760
188 571
708 418
361 25
508 344
310 194
872 683
391 775
654 955
489 381
343 14
570 446
57 353
975 581
335 730
820 570
949 858
823 689
954 832
636 290
725 628
247 496
341 891
512 25
623 149
960 939
461 434
881 495
265 488
244 782
74 632
32 549
835 411
682 10
558 665
887 471
13 860
655 477
256 771
577 97
50 291
882 580
973 795
852 156
466 322
140 135
87 353
931 660
236 344
511 342
374 714
13 369
533 906
3 423
962 964
214 889
33 796
188 616
906 655
845 336
380 704
716 810
315 343
318 538
380 823
9 401
817 314
121 661
698 15
937 973
699 826
906 112
751 6
897 275
42 378
584 505
425 387
962 170
117 617
254 93
800 927
269 500
130 922
936 798
711 216
753 34
256 880
867 38
257 476
38 285
944 840
335 282
32 949
115 644
745 797
567 588
308 346
598 737
927 469
970 840
510 129
850 226
598 848
763 899
102 974
177 485
489 27
168 736
79 458
68 89
91 488
640 249
940 164
299 52
392 402
547 632
910 859
644 454
664 316
705 720
961 334
7 690
325 751
38 204
276 561
791 631
762 773
299 513
665 424
865 756
48 449
260 892
62 288
653 707
657 768
910 210
645 367
4 377
597 38
476 433
391 440
918 459
547 908
683 722
71 609
936 246
510 82
250 631
345 901
559 658
504 502
379 738
757 277
741 688
586 330
253 118
208 409
686 386
926 429
289 824
91 500
719 766
251 650
243 271
953 243
169 572
43 23
336 27
946 860
673 252
90 38
473 342
602 189
747 956
441 673
252 357
713 973
436 364
778 691
751 111
808 562
387 177
117 323
32 799
530 114
805 444
166 366
387 111
144 840
532 843
793 589
151 399
889 500
339 39
69 258
126 461
182 547
349 50
520 770
461 600
763 524
576 105
602 821
325 458
127 882
154 802
136 873
510 217
21 613
267 94
966 732
171 762
233 69
197 930
456 228
637 500
664 184
137 280
570 46
368 970
636 291
734 848
73 863
243 600
336 150
202 705
282 618
434 353
833 109
265 713
17 408
809 900
331 376
282 780
748 143
240 958
496 264
44 774
155 167
362 481
919 57
966 124
258 87
22 164
649 670
841 230
671 878
747 252
138 741
571 330
297 645
71 847
684 378
650 550
427 739
530 931
231 538
42 601
774 286
281 475
152 424
217 582
612 958
959 500
119 379
546 59
911 369
777 885
489 523
958 135
786 780
511 723
687 572
946 582
570 518
369 847
587 457
398 152
919 270
761 558
584 773
628 826
916 844
282 864
70 899
757 843
867 263
377 23
729 298
69 329
887 585
468 297
663 88
614 558
117 206
693 917
911 892
805 807
315 39
64 357
331 910
459 676
923 706
836 511
654 854
76 750
521 847
689 385
711 964
267 247
205 871
256 68
556 183
613 290
405 877
671 134
379 404
864 792
375 832
410 836
547 797
167 116
688 165
492 435
368 609
152 674
315 830
472 959
436 26
203 817
855 809
920 726
119 18
731 660
489 769
521 118
730 292
622 878
865 523
57 566
207 492
479 267
687 822
585 660
210 595
6 915
821 685
455 675
919 240
891 697
696 441
183 821
459 565
136 528
589 40
910 700
957 671
248 175
267 343
468 444
54 701
310 299
137 807
197 171
516 529
258 289
275 135
15 947
228 384
628 496
168 590
421 551
747 482
1 114
497 547
833 905
229 508
675 238
732 453
288 565
309 436
30 118
384 900
371 788
275 474
629 669
759 706
556 710
579 104
194 150
69 842
493 106
63 424
365 48
468 528
705 691
345 60
173 782
47 789
624 700
674 592
654 1
40 251
494 438
387 110
464 843
25 61
380 666
628 528
735 860
205 961
666 373
582 80
970 830
850 280
941 239
309 581
805 576
438 107
873 346
737 251
702 887
671 56
163 785
770 283
556 232
98 806
194 937
121 767
285 286
824 592
81 25
742 854
195 17
531 587
403 188
241 300
208 51
686 744
56 135
740 81
389 147
183 325
442 731
973 469
974 112
635 218
820 120
91 524
679 276
701 316
369 819
333 856
482 114
139 831
50 334
87 681
480 681
627 908
725 849
943 80
804 650
17 40
408 859
620 466
930 972
75 975
921 483
792 917
836 650
691 137
801 857
552 193
610 459
295 794
476 152
139 328
503 925
325 429
689 186
434 535
79 323
310 774
141 668
953 622
607 825
376 873
509 915
256 121
276 116
138 117
391 762
682 537
371 716
555 170
134 299
838 799
397 603
27 482
82 907
356 382
963 814
752 555
56 18
497 384
777 423
864 584
657 905
643 586
321 924
758 254
880 429
273 17
717 726
225 898
875 354
350 400
46 216
628 584
705 449
54 726
614 446
58 268
654 676
718 283
870 118
300 80
34 356
37 895
521 846
595 189
638 125
140 632
628 179
779 147
180 684
848 382
223 526
85 617
836 471
567 321
431 286
209 197
542 1
472 529
95 721
103 950
341 162
104 346
787 169
170 365
482 75
800 44
381 899
22 545
43 518
190 763
769 307
731 802
919 243
13 68
622 568
398 518
701 951
444 320
247 653
896 791
257 803
610 499
649 725
620 824
913 728
953 859
535 161
923 387
71 641
77 452
641 359
751 388
642 216
520 676
634 590
258 576
30 228
33 320
317 220
366 949
209 7
512 385
698 436
367 835
394 501
128 265
275 74
63 427
891 314
144 654
368 364
729 64
914 49
164 592
810 238
801 481
201 557
293 5
578 245
360 766
625 182
362 395
930 937
718 868
231 223
509 473
787 641
783 757
932 17
671 884
585 243
487 279
278 854
187 168
533 853
475 149
7 18
160 651
825 655
422 766
267 836
392 590
470 795
498 496
466 594
881 561
879 26
313 61
42 645
336 106
485 327
937 752
384 784
705 636
555 381
643 802
53 50
545 68
489 958
554 282
151 632
549 517
622 948
431 718
458 361
41 391
601 255
844 293
536 590
539 305
207 423
942 686
568 351
403 966
117 470
946 228
274 553
173 309
343 901
512 880
529 182
836 937
554 535
294 231
64 650
792 274
699 480
180 939
935 517
738 569
8 892
267 205
141 748
200 184
458 900
538 832
868 719
432 795
50 678
214 312
789 802
741 57
489 632
273 571
739 937
920 845
27 485
773 16
912 700
760 286
551 415
882 818
491 318
255 681
579 639
113 465
554 391
867 265
736 459
199 581
496 532
266 540
577 899
875 16
306 269
698 635
644 613
903 472
144 463
370 555
957 603
784 255
77 432
281 155
157 504
713 184
45 291
612 537
209 26
525 618
929 210
346 68
181 950
890 744
726 338
659 151
860 748
275 158
708 968
972 518
57 858
207 712
833 265
869 731
598 11
341 18
342 821
881 5
674 586
805 308
950 807
221 685
868 404
696 349
532 707
438 726
735 68
493 601
179 246
970 215
397 228
634 794
115 613
745 766
876 316
969 486
438 867
226 393
966 159
174 153
306 305
589 774
876 482
86 746
966 240
305 248
201 319
499 62
392 708
894 405
588 642
922 488
637 493
305 474
731 832
556 149
966 800
967 610
39 191
473 298
169 545
43 8
377 966
273 515
172 579
345 145
939 227
872 158
494 413
959 893
804 946
402 218
910 2
575 690
431 138
787 930
60 224
874 732
891 726
643 163
705 366
559 127
966 402
608 607
594 606
596 240
687 155
28 612
567 945
663 386
22 14
279 405
840 433
36 190
865 66
913 596
163 53
918 167
54 365
379 643
31 10
841 954
929 463
413 854
197 943
883 128
167 843
30 80
158 165
324 693
864 962
538 527
62 107
890 846
316 724
575 97
369 70
669 73
33 175
937 401
209 703
670 476
307 214
571 933
717 607
331 236
667 374
545 902
433 429
416 733
805 93
455 724
259 121
23 496
709 753
361 899
469 584
787 559
847 359
889 405
563 84
965 808
975 365
70 215
36 67
865 253
870 878
905 890
546 656
505 766
699 370
738 468
150 334
233 260
132 928
297 795
750 914
453 408
812 209
870 475
361 249
51 814
819 856
343 46
906 124
416 480
966 872
377 781
897 384
76 137
946 867
656 809
363 703
807 18
935 217
169 906
578 374
621 308
397 682
273 868
717 865
303 192
531 37
901 251
501 327
632 933
299 950
442 646
648 37
300 744
675 972
602 692
287 498
633 858
960 486
303 772
463 66
653 14
212 194
199 580
439 501
540 384
36 825
657 356
738 265
442 314
560 617
712 692
750 844
567 878
810 797
851 203
429 481
656 427
965 191
453 880
723 389
174 463
893 973
729 788
487 572
510 359
137 635
452 292
628 189
7 234
200 292
924 573
393 931
487 883
453 815
494 53
38 924
793 386
189 537
688 344
836 352
167 198
939 105
88 547
290 527
285 50
440 224
539 700
631 338
928 373
623 318
75 508
94 424
648 788
540 770
743 773
890 459
735 161
631 112
134 710
726 940
912 552
751 587
597 177
636 921
583 898
910 214
494 851
244 610
796 201
619 950
726 654
624 960
884 562
580 811
371 424
362 292
839 826
115 612
836 716
948 722
823 454
141 367
813 445
102 140
965 2
556 481
370 588
480 500
581 50
215 340
73 363
975 334
244 452
716 878
310 251
671 638
634 959
231 607
803 422
239 48
774 229
940 245
63 870
873 46
232 162
441 90
849 53
100 505
247 378
160 958
397 959
324 737
612 284
649 571
246 566
265 21
360 149
911 170
125 907
436 74
635 834
696 830
627 742
20 504
523 483
386 614
824 98
208 775
341 53
203 60
479 475
236 60
601 18
530 110
173 446
464 846
568 68
378 780
571 727
124 320
314 628
729 359
801 690
325 148
370 831
151 504
597 792
589 856
145 711
704 82
729 513
657 300
315 96
272 349
764 742
442 101
15 912
107 659
305 372
107 544
492 818
647 60
337 27
938 367
785 819
241 455
438 315
77 89
523 67
730 645
512 496
726 396
172 770
307 541
765 270
646 169
467 720
32 371
930 404
612 22
730 249
217 42
146 22
166 93
889 93
886 972
28 22
891 38
194 266
221 611
41 389
569 644
601 110
342 184
286 835
767 270
518 834
776 317
796 928
31 917
754 790
738 243
866 956
171 798
390 820
260 741
386 143
387 762
444 505
376 31
602 789
608 858
23 951
248 89
943 518
390 489
598 952
73 291
427 884
765 238
529 752
842 585
720 561
498 387
65 748
347 170
214 318
492 564
682 516
593 231
479 974
513 806
129 573
578 708
674 211
413 381
653 30
303 338
697 419
511 735
55 857
95 924
722 841
105 857
624 711
397 395
237 332
585 764
911 678
347 933
874 642
921 595
44 742
398 553
2 238
499 744
886 404
266 651
178 495
253 553
533 727
704 107
62 837
102 278
92 280
975 87
478 533
487 345
853 920
803 175
647 387
741 647
908 274
396 638
298 572
278 638
194 637
394 107
368 808
498 423
962 630
674 418
604 167
417 75
667 786
95 572
242 928
243 329
414 776
9 146
119 347
11 460
74 840
242 130
967 926
843 660
47 908
14 255
312 923
555 789
714 538
860 780
131 462
12 152
142 381
101 934
155 242
946 219
396 248
131 125
942 343
805 229
867 436
705 305
874 46
589 947
491 856
738 187
664 955
323 547
605 137
681 329
6 564
244 39
395 239
438 131
256 669
563 730
626 666
823 20
736 166
867 880
484 340
875 685
414 59
310 248
220 393
225 528
172 249
104 735
638 924
875 570
390 402
113 535
560 82
177 742
778 120
161 528
60 856
498 173
146 942
185 461
186 638
315 862
928 291
967 509
534 887
497 508
15 134
43 697
669 901
319 540
673 307
87 641
147 724
28 320
306 30
967 343
918 377
957 477
687 52
67 855
92 674
175 133
918 91
900 562
49 418
552 7
542 742
897 845
419 129
849 596
757 323
63 598
214 710
319 265
556 228
974 111
12 630
414 166
306 791
897 152
819 641
202 836
445 724
370 53
186 675
299 384
730 932
587 629
289 170
806 465
95 810
790 933
812 593
543 963
324 779
352 768
556 590
199 30
661 773
357 382
948 343
397 503
244 564
867 238
796 818
657 92
841 399
587 159
420 14
349 224
386 106
460 831
634 94
73 230
348 824
351 679
709 273
97 105
20 569
295 577
693 862
415 184
521 965
832 642
172 419
908 367
932 357
3 587
231 529
609 321
851 508
600 700
512 302
186 357
149 351
9 484
427 21
689 378
466 565
621 639
472 650
141 971
589 114
242 159
450 112
911 237
310 748
730 26
852 651
816 673
804 790
541 17
66 179
554 396
846 748
298 334
139 974
820 463
248 732
160 274
536 685
294 877
729 741
80 537
100 724
247 903
35 508
115 780
221 409
64 92
943 854
758 834
651 388
324 164
948 798
239 459
334 501
281 239
102 113
783 972
1 105
954 177
522 413
512 667
552 652
536 273
124 681
96 280
57 555
295 169
102 701
379 280
362 582
20 128
299 443
172 971
121 917
929 64
108 469
275 50
242 131
872 22
621 645
441 655
365 450
564 283
749 114
900 116
193 24
714 618
680 534
455 376
388 311
643 315
58 889
383 135
683 554
961 140
16 285
380 943
697 634
540 192
232 955
430 40
456 675
761 152
266 684
753 524
277 300
188 857
415 82
400 809
845 618
404 784
898 330
370 477
97 371
560 885
79 263
546 440
324 446
436 528
720 619
405 795
428 140
910 824
492 863
163 969
441 239
566 89
608 335
891 464
506 574
608 318
336 92
397 526
20 267
540 578
816 666
688 166
172 717
217 972
165 276
639 746
930 592
200 877
381 931
491 392
973 880
210 560
725 255
141 94
622 617
145 411
204 642
546 937
69 268
943 782
819 276
783 753
188 893
510 112
120 10
604 292
662 204
646 577
832 679
374 818
770 357
148 305
745 283
872 92
183 329
388 631
711 907
604 249
881 932
864 854
2 573
186 334
889 645
197 221
953 160
458 846
99 624
453 355
632 464
372 715
195 306
345 321
627 343
4 852
377 592
685 184
768 313
864 658
459 39
77 620
703 264
725 448
528 772
156 93
400 407
203 474
55 101
776 114
321 907
89 407
911 844
735 8
575 723
99 234
182 743
686 185
236 448
648 362
575 774
407 880
610 439
761 600
953 663
275 895
202 677
760 135
337 458
173 100
512 914
895 283
438 72
391 66
654 892
261 594
387 811
698 167
368 782
367 48
479 554
575 368
769 432
497 895
647 435
9 491
82 723
409 513
138 193
8 557
252 86
548 667
915 888
479 857
750 444
209 510
730 40
256 553
55 859
556 563
460 408
787 769
881 238
658 110
805 493
109 784
343 839
92 581
718 817
614 710
745 885
653 954
162 887
18 755
153 872
210 651
892 831
692 710
126 233
533 951
41 605
940 863
633 155
228 249
144 338
733 176
970 706
556 53
284 842
107 605
552 766
440 568
812 176
529 722
720 543
941 357
238 483
275 343
167 925
261 360
637 39
176 628
419 660
441 940
684 152
172 964
212 873
759 528
750 489
237 123
296 968
691 618
342 222
610 614
725 279
930 589
683 401
99 68
633 537
705 100
217 258
92 954
93 495
403 917
471 723
696 464
880 93
919 14
605 485
222 847
230 362
303 555
455 959
390 762
852 433
728 895
966 457
659 383
684 538
261 871
390 661
893 652
396 318
92 109
421 861
851 232
174 383
520 681
589 775
361 37
159 382
510 390
125 53
964 254
824 553
860 319
517 522
704 723
358 564
363 858
402 786
761 963
704 834
544 535
427 237
391 590
160 251
493 958
603 229
200 799
403 354
498 540
606 486
670 631
643 393
536 631
616 148
621 172
515 707
728 142
588 650
163 330
201 899
960 80
729 405
69 156
889 223
379 953
400 790
202 654
470 707
219 961
805 586
883 358
380 692
876 593
271 519
759 888
525 716
530 950
76 556
183 328
82 349
154 638
738 880
944 159
341 545
413 116
440 462
4 567
691 791
104 759
337 843
33 50
206 599
505 856
678 797
134 611
530 284
15 228
146 21
929 730
204 882
613 538
942 576
636 877
620 298
507 931
145 100
735 11
540 107
688 830
696 281
36 794
643 370
535 288
648 412
598 384
197 297
236 449
57 365
220 719
463 106
767 408
823 410
805 187
150 96
278 21
358 199
59 166
847 385
712 668
947 471
220 147
372 86
689 188
727 604
974 175
512 514
327 835
884 88
6 796
813 164
836 219
96 382
171 364
85 750
751 153
935 358
662 442
497 894
684 38
647 434
381 471
846 822
281 766
212 854
102 614
341 950
158 276
548 644
54 453
26 926
341 807
927 736
744 118
434 474
720 15
522 797
778 739
574 425
859 500
208 706
635 109
251 356
714 628
881 237
938 892
326 385
644 46
938 783
5 724
640 925
680 858
207 311
947 228
459 526
121 35
49 270
789 716
878 895
19 806
762 284
126 159
917 641
262 485
403 420
281 237
853 790
119 641
104 742
565 615
840 58
289 788
937 896
295 218
7 230
158 86
742 784
146 665
953 223
66 320
566 157
369 433
484 838
285 147
252 490
234 813
347 454
220 840
616 29
299 347
816 591
401 271
41 288
912 669
951 39
53 393
574 101
428 931
329 462
260 868
657 248
821 517
624 964
867 296
726 765
605 484
73 188
79 114
36 135
720 944
432 412
823 224
391 116
569 926
2 821
295 408
81 788
417 367
776 899
720 508
229 118
333 408
451 224
937 670
494 213
591 553
846 37
792 294
377 954
40 678
78 694
711 84
892 222
929 844
290 926
243 866
583 828
820 18
844 424
682 31
153 747
852 931
229 748
352 564
705 240
616 565
496 371
4 468
596 142
500 283
508 830
206 429
776 404
444 354
304 405
837 245
361 708
571 457
607 415
499 338
102 221
275 869
57 418
390 374
263 13
214 709
231 665
902 364
23 653
817 132
665 504
177 721
394 46
893 98
417 135
785 252
402 740
294 478
557 348
816 858
161 11
717 22
223 477
315 782
512 18
152 737
962 206
782 413
752 518
643 49
267 517
425 213
472 156
8 222
74 323
900 477
169 109
562 748
391 577
1 676
443 779
944 820
876 99
490 290
749 559
27 889
311 161
197 74
254 437
511 302
689 802
743 243
28 756
430 832
455 791
872 835
488 588
968 374
727 460
345 886
162 388
698 818
440 542
654 578
647 143
390 124
266 166
569 583
525 576
100 302
94 772
241 368
781 724
557 320
741 180
108 631
252 344
74 562
423 924
42 868
892 373
30 815
307 422
680 716
187 588
830 822
210 615
167 508
456 571
448 143
175 340
919 85
232 732
804 935
415 123
23 870
49 495
569 784
666 86
136 809
768 746
422 879
849 401
283 827
392 701
232 316
347 29
915 952
217 682
788 25
39 161
543 721
266 271
160 774
273 537
626 137
54 422
129 541
591 709
741 168
591 874
722 1
207 465
493 928
318 716
624 648
472 165
397 62
298 289
852 904
339 567
364 34
938 849
463 926
435 249
827 715
370 489
718 787
512 292
387 395
816 48
487 10
235 53
128 745
643 218
887 549
121 62
804 431
36 49
886 359
282 401
637 931
747 47
128 18
438 135
663 346
335 773
544 239
410 887
141 733
272 532
884 145
944 102
963 258
916 148
194 972
417 107
225 793
955 471
360 11
971 541
788 61
223 504
43 14
879 237
557 537
963 862
786 829
613 770
869 360
467 680
948 89
762 703
65 133
20 188
492 60
153 746
744 877
910 4
334 858
622 765
539 219
117 507
670 791
454 418
93 354
969 315
861 893
787 646
652 312
206 477
785 490
163 426
738 458
282 356
603 968
490 131
608 802
96 118
176 958
419 274
467 718
479 674
606 527
414 170
310 843
572 538
134 37
548 531
685 678
273 592
475 854
886 692
890 699
247 458
747 770
52 212
158 753
440 46
741 224
190 126
657 635
177 881
801 164
342 772
792 545
360 547
937 181
776 117
208 819
248 708
909 263
790 522
458 227
188 472
689 758
869 832
448 164
758 88
871 347
912 162
162 961
951 707
274 947
918 392
804 487
466 90
323 767
395 218
606 830
440 961
115 833
337 463
687 411
376 147
375 298
442 2
20 795
728 354
85 43
104 795
195 100
749 500
253 422
590 31
42 721
335 640
484 78
181 42
510 702
99 657
368 638
446 17
75 224
507 242
159 773
401 289
173 829
235 524
627 594
800 24
504 586
805 490
473 849
791 843
669 499
904 949
156 834
804 726
205 863
122 475
32 975
297 445
731 166
304 463
583 331
144 24
658 561
277 133
379 867
704 270
918 365
81 191
432 175
426 269
416 701
712 217
788 26
556 861
137 57
587 561
588 334
91 942
740 17
256 520
591 794
282 568
339 585
503 330
622 887
776 13
687 825
728 262
766 834
912 445
836 327
95 290
923 95
72 697
74 491
554 785
587 617
64 13
957 293
644 689
975 129
904 542
656 239
776 728
135 847
871 65
875 898
803 225
54 805
771 863
370 582
244 83
101 502
33 638
343 281
82 485
409 819
432 252
571 107
148 136
698 90
417 106
794 600
598 765
506 570
218 118
593 34
406 841
388 844
275 82
69 914
674 788
734 924
160 854
338 949
125 743
695 831
791 382
445 224
478 120
539 301
761 493
598 264
912 409
524 526
559 369
875 290
822 815
516 186
511 214
629 351
832 255
637 665
503 658
685 430
250 447
948 700
771 157
511 308
918 92
746 831
657 294
664 710
197 886
760 222
492 921
332 562
673 618
220 351
883 137
519 495
206 926
185 161
902 396
871 553
416 475
258 862
229 249
727 110
199 465
609 907
540 563
315 768
937 228
397 558
513 845
860 572
275 110
403 421
636 27
912 577
687 659
640 662
97 567
696 173
92 637
577 495
559 171
786 373
41 826
738 894
70 191
12 124
325 3
749 924
272 288
441 472
258 766
577 964
279 660
742 788
256 114
613 308
217 547
896 130
310 852
722 364
336 447
846 18
948 549
593 217
521 388
944 955
638 522
19 32
506 340
307 797
551 6
521 247
820 37
108 279
643 548
597 309
40 926
331 129
79 551
649 228
498 690
415 545
778 851
139 675
861 898
933 53
633 867
761 278
743 418
235 75
142 389
101 878
709 367
141 243
454 378
704 97
101 767
828 582
794 30
651 443
103 182
362 124
325 392
864 470
295 608
197 846
720 757
24 268
229 381
675 111
626 707
879 279
789 251
379 561
851 415
426 277
134 226
655 900
116 630
427 133
871 710
103 856
498 786
741 214
436 236
959 240
138 594
96 968
59 69
192 806
394 794
611 485
188 274
960 315
902 690
196 869
622 743
165 46
687 937
875 313
783 506
554 798
614 742
145 323
590 733
516 342
482 900
174 54
377 170
787 733
183 956
633 89
176 694
762 430
121 399
71 58
651 133
33 750
327 772
261 406
427 946
923 809
434 220
872 714
102 707
646 922
647 503
975 538
564 567
380 80
474 29
55 584
82 550
963 947
727 58
214 235
665 605
445 797
531 900
569 57
221 886
422 55
726 225
88 693
493 898
294 125
646 486
636 214
751 519
70 807
363 299
739 84
959 603
293 157
701 240
199 743
131 95
705 358
587 863
936 78
351 585
231 39
328 286
130 12
940 765
451 472
468 474
698 571
836 973
301 215
414 398
699 76
6 820
103 476
846 60
558 368
119 586
431 830
113 565
440 355
295 159
635 680
773 538
724 719
11 354
474 78
9 323
261 61
209 260
119 281
803 566
660 917
899 695
919 680
85 266
160 46
293 462
507 822
400 396
423 501
613 518
587 439
457 350
610 780
558 532
649 856
744 730
456 514
803 623
41 168
300 659
83 357
155 176
728 110
326 786
736 585
649 570
583 260
514 283
202 351
250 495
410 256
763 658
839 537
92 418
828 366
701 728
244 101
548 125
805 618
846 382
390 480
747 279
436 550
906 770
390 115
929 483
823 971
402 549
688 86
542 881
12 528
556 85
581 678
698 386
76 306
608 129
764 135
787 328
436 922
935 64
760 550
707 481
256 447
664 300
190 971
437 737
180 248
232 563
319 594
30 899
624 766
291 641
386 695
215 524
973 674
207 386
706 383
64 35
261 734
398 560
202 401
671 529
175 454
918 426
520 965
596 816
914 843
935 877
187 769
957 737
962 854
763 702
15 819
935 962
974 796
97 504
816 330
124 535
591 29
339 404
12 470
180 912
91 375
646 669
945 788
180 519
422 588
228 779
85 654
402 664
918 560
81 95
63 219
162 248
55 615
759 755
941 514
380 188
493 123
111 316
925 14
303 398
55 773
872 171
640 305
569 141
735 280
930 769
668 327
873 519
714 517
142 42
406 269
648 235
646 394
51 236
624 794
108 395
416 700
904 964
43 624
965 549
369 578
317 226
875 312
17 34
577 470
153 847
232 816
736 480
827 795
775 603
512 817
434 755
111 585
221 153
7 258
45 92
551 901
1 222
153 395
108 866
345 691
626 740
640 263
702 721
848 5
281 495
708 450
163 611
441 241
137 744
216 815
512 492
33 42
487 830
570 30
9 294

919 5273
285 81
235 36
54 632
329 175
475 152
900 111
849 491
207 607
118 883
276 578
266 149
588 448
103 895
911 178
72 92
199 380
237 276
368 696
898 827
348 451
42 457
478 6
133 30
99 455
190 65
27 673
475 518
105 20
488 172
13 334
567 811
876 775
21 356
38 704
521 746
596 871
523 539
596 155
92 216
72 720
551 898
854 593
888 847
645 615
77 578
704 378
129 305
304 454
390 267
781 580
119 205
858 284
531 686
731 717
788 650
855 197
844 458
368 914
461 297
651 889
565 384
158 347
101 334
608 704
547 274
699 391
612 581
195 644
805 267
316 297
651 3
300 435
619 64
482 863
565 4
527 765
306 467
877 317
114 609
606 862
40 657
38 140
98 36
334 445
774 152
427 48
796 658
130 94
651 216
838 424
144 767
451 915
144 265
273 352
234 762
496 828
163 464
137 127
891 43
620 573
87 550
102 866
77 13
418 455
576 246
425 416
667 161
764 92
118 196
428 557
529 523
218 233
453 563
42 443
79 743
723 246
329 885
84 143
48 654
641 703
396 917
454 580
453 708
438 642
223 562
829 51
371 272
366 383
10 909
205 243
835 862
507 263
507 842
617 315
19 653
774 524
432 890
180 56
45 757
711 470
484 480
618 351
547 130
368 813
314 35
759 887
347 451
155 592
176 763
394 91
395 494
876 272
784 366
92 295
54 389
395 842
518 558
711 244
891 219
514 305
784 9
141 388
74 531
401 321
700 803
346 823
518 372
635 765
315 113
741 442
355 627
228 195
305 187
715 429
453 862
348 690
455 622
42 830
298 362
562 911
870 92
853 252
157 543
564 65
583 807
875 758
549 659
174 82
15 445
55 480
104 591
404 657
62 274
104 111
18 291
201 1
205 705
884 770
540 700
22 409
686 429
913 903
395 538
30 863
332 586
293 183
260 176
887 159
101 393
285 413
584 567
341 713
894 852
36 292
496 215
278 608
497 354
79 326
249 52
855 44
613 186
468 767
515 430
537 106
120 595
631 48
499 243
210 825
247 476
595 292
875 482
465 375
855 712
252 611
751 289
146 359
58 840
77 242
149 229
152 55
260 824
725 838
209 397
337 720
128 876
86 640
452 340
152 498
197 222
661 122
841 724
441 31
547 772
775 134
209 75
693 580
76 319
105 138
317 894
518 715
252 660
144 373
179 798
199 714
165 315
531 205
222 895
774 497
206 598
226 827
758 512
673 642
48 294
563 530
361 539
172 374
567 639
234 689
860 80
550 363
329 117
19 346
40 480
847 287
813 731
761 90
869 473
745 240
511 157
764 225
306 241
362 82
109 799
331 654
726 298
97 98
796 309
207 438
120 520
466 89
692 274
170 498
512 147
734 445
93 918
368 334
791 341
171 507
635 702
588 154
24 52
728 683
352 365
196 385
655 148
514 58
156 241
93 775
612 147
788 890
541 137
10 333
780 268
907 668
799 79
712 308
236 255
39 604
758 284
558 290
390 559
262 752
601 215
268 885
821 478
418 238
513 854
146 908
808 407
862 238
899 311
756 415
560 637
209 511
669 662
156 130
584 8
86 71
487 159
396 363
219 904
74 219
165 348
38 218
681 286
581 117
688 619
726 23
428 814
547 214
632 286
308 161
142 68
236 300
418 331
495 342
557 444
632 824
686 239
287 419
837 385
3 373
803 49
54 885
327 823
145 847
511 828
96 155
30 828
725 86
561 445
111 345
13 890
711 103
836 527
438 818
183 754
223 322
200 189
616 507
376 916
139 684
625 569
325 766
752 550
126 225
54 183
475 315
129 876
901 646
74 510
736 406
27 518
525 315
821 79
571 197
775 288
763 789
352 157
675 442
866 652
634 559
836 746
191 518
266 286
50 35
875 715
803 54
876 672
825 594
826 867
95 751
593 564
43 509
5 334
264 328
196 728
490 608
680 154
182 415
677 149
902 457
171 337
541 445
870 349
379 879
285 820
452 548
640 301
732 406
152 730
332 497
668 379
338 882
732 403
581 663
322 315
710 880
235 400
736 598
398 561
15 694
517 10
745 776
716 512
564 897
637 128
698 859
17 917
569 765
633 220
511 377
94 670
775 630
838 591
227 507
687 346
623 524
395 874
411 409
768 821
423 138
589 792
54 22
826 416
312 603
795 595
540 67
65 818
264 478
304 667
582 600
289 903
110 756
881 432
507 909
184 533
739 814
44 725
890 789
57 867
581 69
176 319
282 136
123 536
548 146
362 909
885 411
550 319
561 760
310 101
285 165
459 416
285 528
407 826
57 455
781 73
91 608
655 485
146 37
73 794
350 111
23 351
109 279
725 566
135 411
395 732
340 382
179 69
15 60
588 338
368 800
365 402
105 297
21 464
261 886
257 790
94 794
320 61
157 677
283 534
88 724
693 462
362 239
641 760
346 219
639 754
844 704
496 350
149 380
594 34
687 10
193 705
232 222
529 88
124 468
344 493
417 60
553 671
753 698
661 273
493 820
668 563
483 696
483 664
907 234
93 764
637 146
488 503
469 187
854 447
826 892
666 865
21 547
133 622
389 155
33 305
670 765
77 583
323 573
584 806
604 7
197 599
176 653
170 669
96 278
510 374
897 270
3 34
194 169
386 384
546 136
482 688
416 82
239 811
223 632
918 712
703 802
886 70
483 816
373 49
601 470
710 144
744 882
459 773
325 265
550 297
571 225
789 154
633 563
77 344
83 772
833 176
482 94
725 386
265 233
193 580
541 405
674 151
750 631
884 287
843 564
400 623
40 892
663 123
773 796
777 755
387 891
300 899
743 169
564 378
206 162
99 389
626 578
44 329
365 388
202 806
224 173
97 401
208 311
10 654
732 786
283 433
379 779
350 756
786 863
63 325
806 721
273 379
590 663
864 802
794 772
641 686
388 7
299 740
29 637
171 919
581 651
450 840
839 486
698 707
793 566
629 489
684 319
70 810
544 452
711 168
261 31
752 295
787 373
202 261
277 309
443 622
101 529
264 363
836 580
11 188
585 220
345 745
288 369
382 419
219 586
160 912
310 295
112 538
493 584
607 211
190 333
117 492
264 528
407 120
357 12
761 833
838 324
803 844
108 267
382 405
111 539
594 805
596 705
816 375
433 442
601 698
247 750
726 514
913 345
640 703
697 322
698 432
865 672
139 658
666 217
226 295
524 143
344 796
859 654
285 200
156 489
783 739
660 545
385 658
812 146
243 578
392 146
677 211
11 181
601 652
319 568
231 598
126 167
453 157
113 527
917 185
663 510
498 908
227 365
374 460
156 695
5 123
231 792
694 464
693 829
695 372
515 319
682 142
824 135
601 672
399 371
298 626
484 1
212 142
729 284
505 567
696 745
808 568
435 860
250 385
645 171
8 854
387 266
244 468
134 672
67 309
557 206
430 609
210 166
859 228
106 521
110 501
864 233
727 832
495 910
436 828
388 222
794 889
564 422
49 424
201 67
360 813
177 841
202 550
299 698
237 89
23 9
592 445
108 175
811 406
388 528
685 806
870 660
65 232
871 575
620 491
782 878
436 772
349 155
900 285
21 793
353 216
596 140
617 718
869 741
304 516
467 80
765 393
161 123
803 692
732 239
127 575
276 487
307 281
833 553
299 88
718 591
191 131
802 654
103 424
485 893
911 186
444 878
842 552
490 454
865 214
518 573
833 919
280 17
156 564
563 795
505 794
472 419
759 325
753 886
534 197
132 629
477 281
266 259
388 84
651 460
870 840
528 17
602 56
485 644
513 483
199 154
39 677
19 208
880 882
404 353
668 758
18 372
262 899
104 542
245 598
304 64
766 607
45 64
14 85
387 167
74 704
678 401
419 676
819 698
149 88
830 326
44 565
667 535
427 778
139 772
48 650
723 159
7 415
732 55
834 322
798 318
848 97
836 917
868 727
761 46
230 598
140 764
795 502
748 151
819 833
605 570
913 689
183 580
23 511
814 478
544 281
304 675
428 128
359 391
839 708
518 837
367 125
584 400
48 414
98 431
262 305
562 586
283 220
763 419
637 208
824 802
431 76
531 703
366 615
681 205
496 766
650 845
171 745
98 843
484 368
176 1
432 342
378 69
323 265
306 371
641 457
499 266
110 398
319 406
718 532
43 307
761 508
740 800
887 324
376 19
670 786
657 646
268 187
90 890
453 369
56 123
119 833
83 229
590 504
222 253
519 121
824 245
317 364
890 414
230 728
263 778
632 96
641 893
605 420
417 11
143 464
384 311
9 188
685 190
459 618
741 10
739 486
562 473
200 265
669 158
231 198
613 187
713 553
181 67
39 101
719 904
116 243
281 290
869 609
819 180
547 27
231 738
394 100
604 901
628 665
160 879
684 603
349 627
208 361
619 844
852 481
391 882
605 688
456 583
366 693
508 138
739 775
612 31
757 51
540 153
372 78
617 108
688 908
873 589
140 884
217 638
107 747
855 875
71 257
163 608
554 400
884 628
612 337
465 830
867 265
223 116
291 889
581 602
700 195
613 225
624 153
85 393
491 729
516 894
171 619
258 666
336 678
668 63
100 28
728 338
356 777
170 88
623 656
469 380
793 148
426 456
20 587
857 914
632 589
706 281
282 458
856 577
248 589
912 326
711 445
358 815
490 105
805 67
74 479
37 41
682 197
700 164
759 465
752 414
463 318
302 366
791 827
213 445
868 372
821 323
660 71
208 880
111 744
40 82
422 845
332 349
261 705
870 570
907 211
302 637
11 429
23 205
570 737
593 309
789 662
387 250
739 234
854 598
510 412
869 472
191 172
46 748
620 287
875 628
164 331
770 578
496 608
38 849
421 482
848 914
406 454
99 325
264 601
228 874
245 4
438 68
559 722
711 442
230 547
568 369
357 113
590 24
849 226
650 405
634 254
706 844
165 737
488 6
90 653
808 207
572 312
112 689
60 914
331 586
478 832
45 728
409 895
712 382
230 225
317 5
144 610
645 6
473 359
54 411
511 333
4 697
367 776
188 749
103 912
23 551
670 242
727 440
430 296
340 347
251 477
380 837
127 358
421 28
44 432
98 569
293 487
356 762
615 525
483 596
100 558
467 750
913 385
322 183
837 697
144 699
605 535
180 9
490 722
330 87
701 36
677 51
99 516
849 219
541 902
266 840
175 333
850 191
317 434
860 802
843 287
510 233
185 51
545 72
277 72
150 462
79 348
707 543
29 567
871 784
687 195
108 426
715 146
812 680
501 539
357 684
609 916
358 760
114 535
353 437
781 814
854 762
743 143
344 65
637 234
910 249
387 317
388 645
71 530
675 523
688 158
799 733
24 47
688 79
101 603
597 582
838 367
881 626
808 302
292 391
29 527
165 554
890 187
541 596
651 617
341 3
821 777
434 573
647 619
187 253
737 777
536 919
44 154
367 804
826 267
668 839
744 325
357 350
450 669
289 214
606 416
328 556
718 723
634 469
831 274
441 787
833 529
904 639
438 208
320 177
838 770
32 682
89 500
732 480
753 282
582 414
239 16
519 450
511 807
496 457
193 665
86 685
340 728
197 358
569 709
43 272
625 702
122 6
166 419
759 437
281 238
544 330
500 595
403 633
450 184
432 915
190 792
632 910
631 489
915 798
790 372
719 406
594 214
665 830
615 172
416 315
139 386
787 34
621 69
664 466
624 188
364 511
94 650
898 835
900 578
668 429
557 905
528 143
27 713
446 7
691 760
268 245
894 460
508 159
695 592
581 358
140 50
313 338
791 267
155 844
50 765
634 777
725 195
858 840
506 357
513 435
27 726
912 670
476 442
663 134
885 333
851 213
508 460
636 191
740 68
455 14
579 915
405 585
155 618
83 505
122 747
46 672
585 863
360 625
634 11
548 703
273 539
71 616
201 409
700 563
278 760
846 459
888 264
685 514
71 154
906 369
446 14
692 290
126 759
768 370
199 889
221 705
204 68
102 382
740 22
271 278
500 69
652 520
250 620
839 354
87 409
127 806
865 470
739 643
39 282
191 299
410 35
621 422
743 348
606 95
854 414
312 780
630 412
541 43
906 860
545 319
611 633
137 138
771 721
142 208
328 908
330 912
702 802
793 198
81 383
407 244
796 514
86 709
413 674
144 583
267 686
768 772
604 589
770 568
783 657
572 317
131 238
169 423
761 778
189 497
11 73
501 122
176 778
408 172
876 487
695 360
820 610
536 399
627 645
115 354
44 273
616 146
768 624
752 466
144 327
552 324
695 836
162 471
328 729
849 390
45 689
856 336
780 697
68 46
456 767
486 624
435 79
18 614
433 801
771 627
169 580
168 732
83 723
130 707
796 537
93 717
602 751
869 499
469 879
382 591
274 249
476 528
167 827
167 326
354 798
872 778
724 672
620 511
711 389
629 296
14 885
271 292
129 310
655 161
556 41
332 278
668 30
484 455
597 103
357 490
603 539
583 154
515 567
453 460
626 494
661 290
539 429
276 701
853 59
790 373
600 599
179 391
802 815
450 760
694 225
569 451
235 34
327 162
55 313
511 284
77 289
317 287
650 331
669 723
174 164
903 830
180 542
141 816
364 728
360 81
610 205
76 36
206 373
888 396
660 105
513 829
342 908
347 248
144 849
913 613
881 520
753 723
332 699
648 780
663 796
649 85
100 817
746 556
581 56
175 380
529 79
366 464
825 412
901 58
93 846
25 214
761 169
136 463
797 443
11 656
700 69
170 6
74 747
380 169
534 337
726 262
666 426
775 594
796 374
351 748
797 737
338 189
799 781
74 281
488 167
557 100
752 174
475 508
20 78
801 686
480 22
444 4
745 526
700 98
631 248
107 265
107 860
86 196
241 799
70 146
439 259
166 505
565 191
387 508
453 85
9 292
817 461
585 915
473 311
878 748
834 455
554 69
256 640
538 315
260 371
354 626
99 96
320 654
273 601
9 255
718 241
838 661
306 322
219 145
74 251
257 777
370 658
630 279
206 905
9 311
907 102
856 468
747 16
255 268
586 158
43 72
590 638
898 639
442 563
738 894
286 520
9 476
754 823
286 874
13 18
804 739
144 276
298 164
904 416
258 881
47 749
530 322
345 786
5 763
496 642
77 902
98 269
335 72
688 698
636 411
655 676
875 79
108 696
716 918
515 453
230 623
496 395
331 657
759 351
540 459
319 814
32 376
765 746
443 67
162 659
777 226
339 537
111 456
242 297
316 544
316 109
564 489
762 454
392 523
549 142
33 479
489 269
783 918
642 451
717 397
476 363
57 70
63 533
908 755
193 399
124 412
51 162
14 90
752 501
588 446
879 722
308 872
865 714
590 212
520 816
678 593
667 534
681 641
209 722
764 530
174 81
752 703
109 825
455 333
707 159
115 46
821 551
522 568
745 592
332 370
781 658
239 154
195 134
578 552
450 591
641 701
35 154
734 626
40 239
510 176
3 440
352 449
813 769
636 573
768 568
750 689
120 474
628 426
441 448
166 482
909 672
192 169
636 231
118 122
108 328
788 877
788 215
5 358
320 659
806 211
176 2
597 909
513 133
469 676
770 630
916 371
854 175
651 401
673 895
688 498
142 354
835 696
710 452
677 899
785 486
434 652
255 489
899 704
352 497
437 892
331 457
316 99
209 95
821 859
176 249
304 603
667 481
692 393
639 375
727 656
591 51
72 337
813 862
201 589
256 765
380 458
212 733
734 492
601 670
691 723
27 386
33 535
129 697
141 217
235 2
54 602
254 247
199 615
700 72
728 241
795 817
685 229
690 114
691 570
285 164
456 388
344 85
859 75
717 278
439 5
565 454
725 758
389 593
653 772
905 479
565 674
554 37
530 81
166 834
381 652
23 578
913 578
206 163
703 163
137 888
299 665
403 345
899 90
866 393
596 854
896 32
751 248
328 674
592 228
24 881
515 111
132 79
467 568
880 233
285 12
219 670
350 630
826 272
723 747
648 554
812 872
109 697
907 42
493 751
486 583
140 14
677 270
822 598
642 456
678 65
129 315
884 192
742 567
512 158
14 898
734 185
330 34
130 135
738 464
331 778
872 834
549 912
465 629
284 701
104 374
503 150
13 47
686 769
56 836
681 93
2 845
884 41
158 173
80 852
392 817
248 278
84 463
835 625
392 521
95 535
126 283
200 46
93 701
732 338
91 142
33 879
231 68
647 508
880 437
680 18
510 5
19 461
862 883
229 458
116 881
155 867
45 896
850 391
450 317
363 587
351 795
200 574
93 297
184 635
2 542
582 494
498 17
304 530
889 314
819 784
10 53
616 424
526 431
303 199
784 143
768 73
343 155
128 424
475 348
900 171
912 337
509 287
421 906
547 160
175 867
163 371
531 145
128 906
588 102
534 430
700 85
149 713
794 158
116 201
650 244
304 430
217 873
470 117
554 360
780 183
593 390
292 51
465 810
445 841
281 792
29 138
582 160
303 906
128 66
452 909
693 822
879 550
499 640
442 221
812 389
209 187
26 392
430 221
140 213
429 374
362 619
53 437
753 668
202 106
721 491
831 528
744 261
579 414
870 126
32 549
190 797
17 492
200 92
733 814
98 595
585 702
828 25
540 531
813 150
104 773
83 82
581 906
748 654
819 326
696 917
285 294
438 816
203 342
223 753
332 101
76 749
848 544
542 895
744 562
581 192
691 461
911 418
329 295
71 674
93 315
673 610
648 64
443 219
389 432
119 465
300 269
546 552
891 658
766 471
55 778
822 325
152 346
181 62
328 734
519 234
425 63
363 795
549 559
427 146
428 28
856 373
11 338
603 598
472 521
750 476
770 701
54 98
127 616
883 659
26 516
379 380
812 263
334 146
465 606
9 649
870 722
506 831
435 624
692 728
913 163
487 912
605 432
109 776
310 139
685 619
741 381
245 307
284 530
607 837
768 831
767 146
783 857
712 238
718 498
648 874
299 188
775 793
233 457
482 399
285 59
357 501
710 173
893 131
413 704
548 546
473 131
628 411
867 386
334 106
870 551
449 186
394 464
34 811
803 19
515 62
716 216
898 279
506 115
349 76
847 509
353 454
739 110
426 65
524 816
377 917
101 268
424 786
539 238
560 612
722 527
778 240
906 909
428 313
32 423
586 271
731 810
864 490
661 592
813 479
579 827
874 514
837 489
786 566
247 804
605 93
914 409
71 801
312 209
907 236
591 30
97 187
403 868
406 720
261 248
237 522
356 631
764 340
508 68
688 802
92 378
237 308
130 534
166 240
209 580
708 489
576 142
652 672
217 312
271 757
364 185
59 647
99 361
128 147
121 271
395 242
821 242
515 782
689 329
493 342
590 124
866 477
884 345
636 139
341 425
597 918
67 887
449 720
432 898
876 179
785 575
223 836
74 117
306 753
148 265
682 585
514 290
355 905
855 17
230 302
653 618
122 172
288 246
732 95
314 618
671 502
63 354
350 515
558 729
423 845
634 508
444 867
706 468
699 461
451 498
170 446
689 436
329 772
603 575
755 919
515 360
666 582
633 649
298 9
480 704
800 859
554 340
736 431
144 671
349 225
397 142
813 266
273 128
826 246
873 798
352 331
115 814
421 851
761 762
133 315
104 573
581 53
727 186
88 844
843 307
44 596
560 389
300 555
890 321
391 908
766 649
269 154
505 391
31 323
202 280
39 37
649 369
706 303
796 538
366 361
657 324
509 295
605 134
363 229
15 806
83 100
293 682
111 439
505 89
647 108
651 458
843 272
104 319
855 393
711 388
289 613
894 369
509 130
680 370
476 859
536 844
910 303
632 320
65 577
554 461
728 500
230 659
193 789
732 701
839 480
247 401
681 562
272 841
555 354
439 872
534 778
151 802
334 70
905 266
435 194
176 96
525 882
285 205
767 89
223 776
273 80
675 641
899 507
702 358
260 285
779 832
510 594
65 470
564 790
467 358
782 446
602 759
380 887
288 468
308 1
625 705
2 417
514 327
76 37
187 615
208 288
300 702
192 388
446 435
339 343
341 524
70 814
226 703
680 804
456 25
385 295
837 608
8 535
578 466
838 512
583 146
50 324
783 636
199 62
230 159
424 703
144 34
780 193
812 919
10 259
29 741
645 361
691 115
896 763
758 374
359 720
623 567
328 631
257 823
275 80
546 859
719 862
820 88
633 102
9 160
320 622
429 17
583 542
395 129
267 724
114 161
768 351
328 380
150 334
555 434
420 340
519 23
791 643
170 610
652 917
455 324
248 51
304 688
693 288
78 380
326 532
345 5
501 393
205 880
494 422
351 123
707 585
113 676
193 73
263 474
432 25
505 565
452 360
254 216
329 172
516 70
97 533
258 701
903 512
79 279
751 361
801 915
764 202
618 845
268 748
196 81
911 874
91 784
219 327
864 235
799 746
459 735
595 672
634 272
907 409
449 478
858 908
250 537
108 2
166 641
898 51
628 310
628 478
204 96
352 121
230 135
765 828
156 195
31 556
586 699
145 409
54 381
661 203
220 621
900 527
834 386
148 233
207 239
597 376
554 358
874 37
785 155
747 644
640 90
772 591
299 120
918 175
190 522
740 272
557 838
194 566
232 509
692 358
124 699
803 496
783 755
751 270
626 222
201 422
365 469
42 511
520 68
405 536
340 138
886 322
50 463
747 607
677 583
404 535
610 215
865 69
168 499
594 454
541 56
299 693
835 251
599 827
636 551
160 616
158 167
821 659
330 709
511 221
332 878
791 426
188 16
759 124
483 855
907 169
873 150
837 440
661 417
474 702
289 786
87 658
368 495
169 543
206 436
189 580
246 448
803 179
394 95
858 149
303 501
472 61
201 705
825 68
1 85
572 125
901 722
392 137
905 402
598 713
488 712
105 606
36 789
623 691
886 430
437 882
461 683
547 227
137 256
817 358
438 813
32 495
689 245
235 552
415 371
514 85
364 844
91 524
111 735
24 868
612 250
280 835
277 56
428 400
728 469
298 770
201 908
656 319
312 830
152 284
3 601
866 825
705 492
869 427
871 443
448 883
53 552
341 770
360 586
759 19
37 84
577 73
42 417
192 574
317 615
130 659
819 795
491 178
267 358
55 799
786 776
35 591
129 345
117 41
77 665
777 616
633 243
136 181
282 188
597 520
855 302
739 566
86 223
819 757
741 8
264 644
890 271
448 278
46 810
675 67
566 173
741 681
573 882
861 266
112 797
269 748
722 90
188 893
395 472
246 466
247 448
838 187
362 128
254 243
71 552
217 136
862 333
365 779
195 539
673 814
868 28
728 68
579 534
667 327
30 52
693 412
509 225
177 525
896 178
346 233
436 160
175 500
898 789
331 449
563 222
387 518
773 743
553 638
874 573
433 878
268 502
914 781
383 61
569 556
546 135
904 161
61 297
800 589
423 530
546 33
715 36
395 384
287 315
508 271
861 663
92 641
678 440
275 598
536 556
116 665
117 844
618 274
280 437
506 141
467 885
618 735
819 370
88 385
695 138
664 689
627 51
166 298
557 624
544 780
372 842
518 763
891 785
909 402
431 178
775 373
343 249
440 373
147 619
791 345
632 265
797 796
687 408
283 379
52 386
842 491
269 591
734 759
660 766
882 369
312 868
612 781
665 749
885 842
190 304
706 569
8 593
377 322
693 716
820 452
342 479
847 385
207 766
356 109
718 177
60 268
812 206
740 307
826 424
615 844
317 521
139 802
780 812
583 600
59 558
493 532
19 25
572 466
55 815
152 1
98 664
482 142
63 480
800 802
728 831
43 379
32 833
95 193
879 471
365 33
717 686
630 524
766 863
899 162
303 575
673 850
673 389
840 659
132 424
469 613
732 315
737 765
685 731
496 653
95 511
423 34
22 504
483 271
194 765
546 142
525 802
788 655
565 256
344 444
126 259
636 686
329 552
897 411
520 415
892 614
236 237
78 897
743 709
475 131
376 887
392 470
907 295
285 761
859 866
336 684
218 211
309 333
915 327
629 89
39 558
408 509
812 75
689 860
228 424
618 391
232 342
175 533
217 550
219 90
181 35
91 13
381 662
153 34
718 481
129 750
538 708
426 314
796 429
639 735
506 788
15 251
456 88
803 895
703 915
738 818
447 209
568 600
535 609
34 792
386 229
350 520
119 690
335 625
104 78
654 81
180 99
899 874
39 551
541 549
154 319
279 451
103 454
820 179
839 188
404 326
593 415
517 546
438 160
666 658
3 856
666 511
687 717
289 709
603 568
734 263
16 776
349 193
39 766
223 109
426 635
743 305
545 861
109 840
329 474
360 121
37 292
896 863
352 474
297 463
79 468
407 662
302 850
856 485
775 654
785 734
87 276
825 704
447 208
319 474
644 760
758 412
758 833
700 328
584 891
691 542
201 897
782 331
70 553
159 776
400 138
75 453
4 626
810 461
261 658
285 588
881 593
228 301
906 466
232 211
867 201
915 62
253 248
489 638
49 879
168 5
757 205
332 323
351 161
744 334
410 78
504 338
654 485
475 631
604 413
896 334
685 281
74 262
628 131
827 422
822 16
302 739
443 10
617 798
64 906
393 159
698 188
785 283
594 814
3 250
591 755
202 495
486 218
742 317
686 37
102 916
191 339
398 553
217 569
804 731
587 221
509 246
236 594
158 906
97 646
258 300
493 569
885 331
522 823
413 386
392 411
435 373
191 416
339 299
784 874
801 671
877 65
732 287
492 532
388 35
131 461
295 492
24 198
285 225
657 440
911 349
417 358
878 160
356 1
114 419
387 228
151 135
647 770
465 18
484 839
782 31
752 735
134 852
435 679
2 469
316 48
257 270
187 6
885 542
101 15
691 620
514 902
105 62
695 365
71 648
699 274
129 884
774 504
367 635
868 871
233 580
712 822
813 595
126 471
660 672
149 644
793 91
612 185
886 776
667 574
870 27
428 10
425 279
782 680
605 848
395 747
473 330
754 406
39 634
333 131
602 826
871 903
432 860
168 816
861 34
766 589
486 630
847 516
426 829
171 441
861 154
542 301
856 564
266 479
233 333
620 847
269 525
695 721
49 894
352 851
424 672
225 305
812 531
64 12
121 384
503 655
344 503
343 257
870 327
328 763
661 722
773 904
57 81
577 322
852 131
462 618
475 686
194 329
487 115
512 57
706 635
234 653
128 205
381 917
57 583
353 195
426 494
493 212
427 270
668 906
122 242
450 504
504 656
343 713
755 552
476 799
572 639
520 56
705 697
633 196
742 764
230 513
47 469
105 182
413 149
859 825
768 908
218 296
329 208
184 239
442 529
666 170
743 296
559 677
850 437
230 37
545 469
33 418
299 839
470 138
864 111
404 597
129 146
481 699
462 440
82 561
266 594
304 481
433 568
433 195
728 16
362 884
551 682
890 528
23 359
903 418
759 185
356 764
394 11
730 116
512 175
98 747
681 191
501 290
139 763
506 391
487 448
895 830
396 892
531 889
695 807
365 192
604 638
235 807
42 229
316 900
298 139
109 440
561 892
817 7
290 754
307 516
39 190
861 875
856 304
321 474
899 82
86 18
521 478
280 75
884 489
382 806
690 811
530 532
503 818
511 94
797 6
734 321
825 491
554 548
459 222
42 458
886 731
235 862
706 318
870 415
410 220
122 461
436 321
450 608
583 757
753 310
700 795
275 269
336 822
166 551
794 563
228 670
854 889
856 521
835 879
657 552
216 360
228 818
287 7
103 446
148 770
646 586
352 685
280 292
10 879
660 213
85 543
283 868
439 566
785 538
596 656
533 844
736 72
916 497
437 589
336 710
404 463
140 358
157 424
542 844
565 918
467 36
783 757
552 714
199 530
93 11
459 794
170 142
649 830
797 35
48 622
650 594
713 473
624 295
735 491
535 286
476 36
573 829
63 147
320 19
783 25
675 907
32 903
801 919
197 729
401 227
459 102
277 408
425 696
209 590
194 644
466 746
250 335
794 399
107 74
641 323
861 690
736 538
681 399
846 388
60 407
336 872
44 134
427 790
466 816
761 522
582 386
94 638
367 298
275 895
606 382
219 232
628 655
347 841
149 786
773 893
499 798
78 534
481 226
104 141
486 552
177 839
732 893
517 376
442 578
320 135
206 332
425 784
318 778
544 202
260 498
450 335
621 489
70 625
512 828
144 269
601 641
352 224
812 417
75 142
634 65
301 270
212 159
603 633
431 64
659 494
588 440
127 12
602 423
865 371
424 274
740 195
820 18
408 33
793 862
46 34
11 76
252 594
695 190
76 558
144 894
264 494
885 225
741 300
170 774
617 332
809 881
585 253
890 311
306 787
398 96
736 383
679 636
899 359
521 211
261 834
97 400
192 631
762 18
869 862
780 34
801 163
837 618
71 714
381 318
399 131
438 122
846 359
174 874
887 35
445 12
671 471
432 15
875 757
417 778
389 659
570 723
607 383
900 669
718 763
578 765
461 471
706 604
673 151
83 454
731 409
750 423
399 831
164 475
2 490
718 539
718 204
350 42
577 796
544 676
725 38
28 314
836 127
801 638
106 348
785 484
26 580
65 702
364 501
20 567
720 37
317 361
210 101
597 535
200 244
361 471
241 825
627 630
360 845
666 295
499 65
211 309
30 492
250 789
434 278
179 860
741 272
623 482
808 108
57 82
440 70
756 31
208 477
516 471
758 208
110 691
250 903
50 326
30 383
548 299
306 690
399 772
323 892
493 500
754 478
403 606
667 509
180 517
118 706
581 234
12 608
662 324
236 881
366 294
761 704
8 488
544 869
781 531
339 256
305 749
565 140
560 305
532 315
897 287
713 485
435 49
166 73
853 17
645 906
459 830
615 705
230 495
144 843
47 373
161 4
490 233
145 194
291 831
717 359
312 722
441 321
666 337
333 243
723 800
499 247
918 670
29 5
231 386
285 187
587 615
878 671
258 441
511 914
359 409
611 172
648 54
522 333
686 7
601 903
396 476
766 234
329 287
20 709
129 704
413 171
264 121
579 687
344 843
730 667
648 733
470 749
397 259
604 701
788 706
897 272
494 318
867 294
900 763
798 248
426 655
353 677
852 615
122 715
109 203
122 305
124 608
782 707
529 463
860 409
164 62
534 405
264 447
721 754
171 778
278 599
524 347
696 829
506 733
126 625
839 56
187 763
863 182
314 894
24 461
885 197
119 876
674 600
444 826
247 70
48 568
470 830
217 330
699 385
370 194
779 866
865 471
560 877
447 655
729 295
452 524
198 409
550 279
825 321
732 427
314 551
792 566
631 109
743 527
465 601
864 393
252 542
454 765
735 211
202 909
576 632
98 244
123 908
869 462
579 639
854 370
766 831
236 755
770 133
826 102
58 659
352 631
629 915
596 813
777 205
373 532
13 319
100 553
782 840
528 479
357 505
86 91
839 198
142 274
418 212
151 391
24 654
656 608
171 500
352 811
204 862
446 371
156 762
86 769
273 15
307 724
235 83
235 422
753 79
291 408
165 510
898 733
721 595
901 229
305 478
764 727
127 121
581 562
764 287
784 279
200 94
402 851
702 37
459 270
793 239
216 10
171 719
558 297
796 76
118 703
449 416
313 655
855 164
597 862
747 622
398 479
71 527
438 379
259 458
585 121
118 101
72 670
484 826
620 415
603 369
632 415
53 267
399 324
310 508
310 801
332 809
189 347
85 154
158 245
86 142
549 102
715 905
449 792
602 765
22 238
423 211
856 313
300 817
210 211
357 757
426 589
341 838
257 374
732 519
677 375
420 905
418 4
881 228
554 607
44 133
901 420
886 280
878 492
764 10
286 578
620 665
803 395
452 315
674 835
310 324
105 185
312 600
593 502
901 53
795 295
540 224
283 425
196 363
804 765
579 301
20 729
756 275
518 253
738 831
99 567
63 517
541 554
56 915
594 841
582 291
693 361
554 248
651 657
490 219
1 521
761 277
93 878
3 71
901 284
797 629
44 182
687 698
165 418
449 373
412 292
777 866
416 378
325 80
881 775
382 131
110 4
516 271
510 802
443 582
647 772
97 282
103 95
200 486
803 432
611 5
679 104
93 69
601 577
612 93
27 449
500 566
410 730
507 153
588 883
636 278
40 169
367 772
774 569
868 444
868 889
152 578
118 317
3 223
853 198
403 813
104 347
747 345
30 615
324 62
235 70
142 406
254 588
238 81
130 422
41 769
595 221
423 524
541 361
48 770
547 94
493 591
913 258
167 556
788 662
329 30
864 202
628 19
739 183
688 85
280 43
26 102
634 499
648 267
137 721
44 721
729 477
824 680
537 863
38 316
730 373
523 509
136 841
780 607
140 356
701 84
343 193
788 434
57 424
275 353
41 294
439 231
722 330
516 621
303 226
217 918
145 331
364 345
20 139
810 242
349 833
560 891
389 58
83 387
672 676
512 35
282 114
141 682
18 468
588 899
414 912
554 255
613 458
26 20
687 825
343 872
447 398
496 278
679 346
913 148
152 378
200 353
1 293
403 297
231 334
854 636
334 419
155 863
687 485
156 249
838 901
859 512
548 458
396 847
584 620
513 179
865 492
738 415
782 887
44 268
327 52
891 688
263 659
72 221
751 391
54 396
257 125
346 212
919 461
277 114
353 724
743 649
339 575
817 552
856 136
50 524
404 409
570 669
847 722
111 320
848 386
208 412
23 788
170 824
320 555
817 659
388 360
849 286
909 143
394 919
529 326
877 340
142 652
753 846
438 672
661 504
517 259
573 358
846 572
100 538
353 771
355 556
83 691
781 707
247 536
639 430
761 671
326 117
602 456
899 520
738 109
665 315
520 733
685 840
218 160
881 288
470 533
795 226
249 676
95 382
273 264
476 305
39 79
522 552
212 737
601 550
526 269
178 890
913 824
145 131
734 351
103 338
470 444
424 454
207 910
75 342
615 919
119 210
653 182
88 574
657 307
536 292
166 157
571 878
241 906
57 342
572 631
650 473
869 211
670 810
430 916
305 153
442 100
344 452
260 313
491 626
766 614
77 587
613 222
540 210
262 234
741 802
325 615
624 702
396 647
680 608
642 171
698 444
286 837
756 746
278 457
299 241
871 401
867 35
511 481
547 689
345 694
345 361
381 48
237 203
240 6
827 474
424 461
423 890
649 719
510 752
501 161
29 223
850 253
509 805
622 70
853 475
652 406
540 706
241 25
95 281
579 284
192 40
191 383
118 497
654 182
250 520
607 810
16 203
316 828
769 502
660 531
296 449
891 69
633 326
782 657
564 573
289 867
417 425
871 159
718 329
295 893
349 762
681 73
56 573
101 702
887 563
429 556
229 863
452 608
819 275
548 264
493 84
486 526
510 439
88 899
866 778
775 580
685 913
299 289
515 846
709 17
237 296
359 203
179 609
680 645
200 698
313 816
207 376
173 776
523 542
874 836
85 694
317 829
320 374
877 351
456 9
879 399
700 463
373 707
115 323
79 818
650 90
523 216
355 103
346 66
453 880
493 628
217 74
73 205
512 552
884 643
277 475
632 17
812 314
331 245
462 583
856 419
910 731
432 566
396 511
142 186
200 157
718 195
350 223
685 906
579 238
405 852
304 358
100 150
658 172
215 650
753 874
57 36
241 448
352 114
832 327
799 127
652 466
637 567
854 39
819 566
571 319
116 43
163 58
695 781
791 562
866 58
811 272
44 224
636 705
725 721
775 570
673 812
434 411
565 289
569 371
799 82
74 716
397 242
220 424
493 774
200 802
891 145
596 6
63 121
673 618
283 703
430 265
123 265
585 422
417 737
234 745
382 518
564 622
896 321
129 579
521 321
558 371
427 354
504 912
176 157
656 860
624 897
306 784
402 595
581 5
866 66
793 290
426 768
440 613
277 227
579 868
597 525
885 890
726 696
179 668
163 35
739 874
791 445
540 310
429 213
581 462
196 90
525 828
379 657
382 6
380 123
53 11
381 430
602 306
264 177
494 552
43 422
121 481
602 575
651 874
673 611
72 471
106 676
677 305
204 16
662 656
665 570
354 832
150 521
388 268
101 570
63 503
600 375
748 138
233 536
303 385
803 900
110 712
823 786
809 583
537 330
535 211
513 587
260 393
631 863
561 380
388 599
168 561
668 719
732 227
201 810
808 222
413 122
811 187
831 378
236 263
561 912
637 475
603 630
32 540
16 497
587 295
571 609
770 371
475 251
718 165
630 374
760 422
282 92
585 714
782 609
587 609
608 746
438 742
346 810
3 721
226 4
815 172
452 756
103 544
692 662
344 199
624 324
808 737
868 33
590 18
26 674
351 908
797 769
173 412
285 663
856 34
341 560
214 294
60 489
641 224
53 423
735 351
537 508
459 615
354 701
23 549
191 82
247 915
408 837
582 801
452 740
288 653
626 676
127 58
199 373
845 902
365 881
459 282
678 326
83 782
903 42
580 760
691 330
314 746
86 384
469 376
328 313
551 131
166 442
21 437
574 181
334 371
690 516
747 246
621 315
782 539
642 118
24 538
310 488
203 309
712 157
611 716
245 146
779 198
790 211
503 147
51 274
161 163
234 555
549 389
241 810
518 746
884 481
756 805
67 371
372 701
446 156
799 551
99 574
673 577
401 525
129 671
112 376
864 605
258 657
740 317
613 521
825 915
871 321
853 122
759 778
395 837
341 342
144 67
917 772
204 37
421 569
631 334
560 625
651 404
689 857
155 30
525 638
583 747
158 121
52 81
254 553
298 776
241 485
365 908
884 908
646 295
152 434
152 615
45 579
11 898
638 151
506 444
641 836
822 334
14 17
534 50
413 224
847 370
761 53
490 512
102 203
228 575
357 706
808 603
103 361
31 476
8 553
587 458
515 337
889 134
92 222
202 497
334 12
740 292
119 695
194 618
804 198
801 101
875 26
730 290
678 118
368 147
189 464
245 243
63 860
302 689
890 598
748 238
785 124
401 288
679 205
414 6
60 82
739 867
43 160
689 536
299 852
891 107
433 663
584 593
465 390
750 361
397 255
753 657
402 705
46 240
168 622
576 379
6 882
427 158
174 606
891 533
732 521
663 241
570 834
419 882
602 809
99 742
313 5
49 411
50 363
288 348
142 363
439 484
239 786
611 86
268 290
837 326
136 256
708 14
459 307
808 490
506 351
490 824
209 702
141 871
308 457
275 918
901 641
316 337
866 677
813 543
888 469
65 609
763 480
302 220
157 61
450 870
14 159
397 301
403 111
455 507
458 301
496 701
276 670
387 318
557 891
299 64
636 367
726 914
212 201
213 197
640 4
215 876
418 462
130 539
847 702
133 501
558 715
127 405
502 760
559 551
894 457
695 232
551 167
144 884
295 659
684 127
300 595
119 570
889 719
543 436
190 351
584 59
822 895
822 672
179 606
716 552
878 555
807 323
168 120
629 218
404 438
320 494
468 798
456 691
95 781
425 684
314 423
647 299
218 178
134 719
171 728
126 409
786 589
676 828
491 702
764 690
369 445
666 445
759 829
48 1
606 51
394 21
913 393
838 151
253 472
282 464
505 527
771 263
809 403
42 124
723 638
27 272
302 714
549 587
396 858
290 437
200 736
644 337
645 56
463 724
551 670
630 85
138 225
601 463
43 885
780 657
413 592
325 183
180 145
625 497
201 268
896 129
848 843
428 602
604 384
693 226
166 449
583 615
643 424
605 691
864 203
275 57
858 916
387 230
687 819
264 379
467 340
379 899
38 273
432 748
269 246
842 197
855 234
455 858
612 520
811 424
631 299
794 733
141 649
320 589
400 251
470 314
647 706
711 403
288 464
362 571
97 259
258 878
687 574
335 506
282 242
39 918
582 274
452 678
694 534
328 758
826 662
246 319
739 382
602 132
740 909
565 77
541 684
377 366
506 657
285 547
567 378
366 13
899 398
811 589
97 34
740 138
488 52
7 64
762 308
562 845
106 269
813 847
394 406
509 832
493 443
419 424
862 860
655 7
759 115
779 184
335 166
712 720
69 386
364 799
513 116
824 84
71 308
403 424
465 189
649 47
118 268
230 842
853 258
356 814
766 502
508 898
518 155
553 816
571 561
571 228
718 640
519 299
612 277
829 249
470 654
320 354
377 828
263 521
95 530
450 48
306 342
680 87
491 912
457 533
313 248
104 812
171 860
359 30
795 294
773 645
139 314
285 311
234 321
179 525
92 909
28 120
3 851
761 791
277 119
618 491
83 849
501 398
861 426
441 423
405 68
117 415
519 516
103 758
640 72
582 145
736 631
610 16
884 108
643 654
498 172
775 346
727 843
539 522
819 260
508 643
107 573
570 319
56 238
349 20
476 161
650 41
791 186
839 514
775 28
285 546
580 575
304 195
838 869
471 902
824 592
618 238
57 337
420 296
328 180
169 405
387 106
262 447
559 319
155 198
470 246
748 626
913 451
235 916
418 857
456 28
911 85
129 861
313 40
850 180
152 607
3 835
355 120
283 247
49 147
140 814
414 405
824 412
810 131
219 466
609 622
611 862
791 167
872 531
136 520
653 658
191 599
304 47
456 342
233 658
215 219
309 274
642 644
125 627
584 370
738 752
8 376
282 820
321 279
718 327
855 854
602 822
605 554
805 279
38 707
258 406
701 832
479 34
355 605
899 287
232 731
581 727
140 265
33 449
645 147
913 15
571 727
753 712
112 56
510 112
385 25
3 470
171 616
777 405
409 915
599 919
673 324
603 621
712 233
116 85
742 514
96 375
901 603
79 622
557 511
120 399
55 415
546 455
673 309
175 50
647 739
236 845
627 327
450 898
501 589
794 220
408 399
853 917
674 751
157 748
448 912
158 607
691 142
692 691
308 5
399 270
57 806
563 249
217 360
829 624
332 424
776 185
622 528
687 504
771 494
212 35
663 173
821 353
222 494
163 52
475 358
148 320
296 457
663 814
427 763
631 491
429 862
212 146
574 422
569 361
382 653
736 106
643 56
202 424
647 228
701 295
546 689
891 158
23 625
63 508
600 251
619 169
505 198
785 136
31 410
768 177
640 576
862 351
366 416
442 383
334 201
635 873
452 543
175 49
158 492
710 443
453 138
130 777
822 255
167 358
790 429
336 477
45 613
806 802
799 652
319 699
305 760
641 563
750 783
785 633
76 697
18 671
8 413
366 73
612 788
403 372
459 627
611 561
142 694
800 571
785 43
255 354
488 439
434 354
785 522
537 704
790 655
516 654
166 181
719 897
94 595
540 431
561 35
192 197
446 645
140 29
859 201
643 507
444 281
580 117
647 53
207 532
208 522
28 68
528 553
50 878
144 802
753 866
455 147
469 197
277 522
244 379
596 296
688 915
391 61
232 133
486 688
196 427
894 198
490 319
199 692
141 776
646 573
476 786
900 837
596 738
27 876
529 34
235 720
803 18
805 181
826 266
2 751
260 340
316 793
673 800
318 422
357 574
429 225
231 85
307 915
732 11
218 567
239 245
247 78
153 167
596 125
746 371
565 677
876 874
736 707
217 87
681 198
607 543
438 309
3 421
829 70
254 315
26 277
83 147
447 658
188 580
503 715
804 61
490 243
787 123
842 825
257 50
721 629
277 388
868 825
686 213
651 789
852 521
711 669
126 856
57 80
256 232
186 123
900 646
8 193
172 58
671 709
339 36
9 912
450 97
862 792
531 239
551 133
475 420
510 464
771 582
774 726
167 188
387 39
889 323
564 763
433 421
160 319
767 253
397 66
18 172
435 742
590 606
47 608
403 525
635 737
78 664
735 359
764 463
877 541
785 620
557 227
861 814
442 915
918 916
349 784
499 533
60 96
752 286
277 891
643 20
487 638
168 87
152 142
639 307
689 409
247 474
601 207
858 109
290 324
649 776
74 329
38 851
93 721
3 258
217 499
728 87
192 916
873 85
94 158
260 669
530 68
715 448
430 35
40 200
518 531
385 892
575 409
886 107
462 212
100 895
854 671
31 522
300 142
303 412
287 550
142 34
507 205
40 87
195 767
60 477
363 539
905 246
797 501
176 535
308 334
856 217
231 702
342 466
417 326
456 850
860 411
26 139
630 865
884 164
26 915
262 531
726 835
647 763
727 305
344 39
141 739
510 9
2 62
665 473
280 644
872 755
139 379
486 717
508 909
344 214
750 41
18 158
910 521
824 146
773 663
137 289
482 681
198 879
657 64
567 733
459 378
456 671
914 890
311 259
24 835
204 836
442 11
907 658
653 479
140 169
270 374
346 431
436 471
440 552
604 374
169 52
339 799
388 773
98 872
120 859
783 535
359 818
215 131
179 546
753 355
642 771
820 13
807 10
185 533
666 464
316 172
681 760
849 727
28 280
512 721
582 58
731 276
765 659
280 444
421 365
355 832
605 876
711 752
231 863
452 24
197 662
32 485
716 87
768 188
257 30
438 593
119 834
585 113
297 845
20 281
706 518
526 703
804 405
231 440
470 17
36 17
401 65
112 828
161 778
557 914
616 338
761 498
546 271
359 811
488 859
657 347
161 414
218 530
718 907
628 762
476 127
538 238
639 879
898 763
891 825
101 815
750 197
588 178
418 237
743 429
350 837
792 844
261 662
460 714
621 203
165 601
853 665
673 404
700 206
654 683
179 351
814 62
491 553
164 521
878 912
293 592
365 707
519 358
496 702
204 711
169 37
886 495
411 211
413 876
613 62
821 901
515 61
437 908
332 9
614 912
78 477
446 288
526 561
715 281
267 292
782 16
468 419
560 854
772 556
680 694
570 829
610 766
662 464
332 408
885 222
762 549
407 85
562 211
780 30
598 765
106 538
325 737
839 182
201 185
241 399
518 243
537 172
3 834
745 369
742 678
377 37
454 798
753 642
57 13
38 89
520 296
593 662
42 148
261 251
168 284
907 242
545 875
247 696
215 294
696 233
364 610
718 735
132 787
21 745
775 620
44 506
813 132
265 58
101 178
503 41
103 484
839 30
328 786
718 917
310 392
792 374
701 644
906 80
387 708
824 776
464 295
643 755
709 574
535 36
503 517
180 694
892 51
875 295
236 589
682 592
610 149
426 729
446 209
107 177
375 384
103 319
216 311
471 358
128 392
481 259
612 189
153 893
426 165
120 189
66 348
818 121
368 412
13 473
130 844
396 620
787 795
883 613
849 853
499 825
524 707
178 672
228 504
191 643
33 331
749 733
308 621
164 598
421 394
833 60
886 214
635 760
9 117
505 121
250 617
98 404
257 786
593 172
441 79
611 656
885 337
706 14
209 622
452 425
175 667
134 701
643 214
310 118
365 686
732 272
156 79
531 75
535 591
255 471
488 808
394 795
15 551
468 422
92 333
642 201
866 315
294 816
260 864
652 239
247 389
503 909
565 629
689 5
48 279
140 345
109 420
510 87
238 749
349 459
242 263
498 464
812 639
727 453
687 487
28 379
285 430
347 916
125 356
324 272
141 906
621 525
132 776
642 656
901 191
886 919
167 378
706 9
7 51
29 638
446 276
266 429
423 385
282 549
414 424
435 37
716 677
919 463
59 638
3 267
190 196
325 88
482 184
732 82
169 69
255 381
76 786
493 696
72 494
24 401
812 743
392 643
465 520
265 124
819 248
674 768
819 866
396 420
848 439
413 67
790 902
349 452
847 69
63 766
192 535
664 242
546 720
450 358
430 895
289 633
513 76
758 196
607 142
59 428
611 670
336 572
373 713
357 655
774 479
726 520
752 825
914 53
787 193
643 196
310 64
459 699
848 817
336 715
467 838
482 779
114 178
642 276
684 639
114 550
812 145
298 84
298 417
196 162
156 775
13 767
657 238
894 473
750 573
658 522
680 665
551 67
572 729
476 81
611 99
683 542
904 268
482 264
83 698
476 368
66 75
156 694
584 95
782 870
914 358
503 528
224 484
368 534
497 333
559 112
428 99
339 917

930 5159
488 910
454 680
218 794
844 429
496 712
656 261
703 378
579 85
318 395
466 829
376 760
585 894
855 559
508 667
783 43
551 604
291 231
58 770
222 120
721 132
334 463
852 791
84 822
621 355
881 569
178 126
755 110
882 602
629 30
59 679
647 94
279 13
576 253
588 355
338 73
33 925
427 141
824 565
832 741
359 683
493 897
521 14
99 579
353 652
883 511
317 894
191 462
249 595
858 675
824 351
24 521
473 314
890 39
146 189
124 644
350 592
10 694
789 209
320 643
329 759
263 631
543 778
639 188
310 205
497 712
663 412
595 314
99 289
763 522
337 756
839 343
191 47
564 28
363 628
733 472
309 395
275 703
240 910
114 286
3 772
484 175
245 750
211 434
160 26
343 778
768 916
821 662
842 368
323 126
224 498
495 874
116 125
278 708
516 141
794 233
306 86
766 19
877 713
370 569
2 209
754 746
41 410
205 257
902 361
647 373
82 460
652 315
139 773
345 646
489 553
823 290
358 464
863 667
510 881
540 36
920 877
43 910
133 475
523 440
818 211
270 918
656 205
109 804
114 220
808 782
589 364
320 624
777 610
273 709
523 521
707 308
523 394
28 771
251 208
35 927
415 374
396 868
39 498
147 781
179 897
882 355
59 546
159 809
408 181
687 655
173 448
383 615
232 601
619 359
834 174
496 255
1 908
734 686
681 501
584 652
421 690
912 757
188 712
615 804
64 582
375 181
766 799
303 690
212 120
215 302
477 816
628 533
809 115
5 836
372 396
597 666
249 209
812 66
503 604
144 803
327 632
116 855
238 870
345 58
61 253
58 329
246 230
727 588
420 336
786 789
572 884
642 764
422 611
576 853
222 704
649 527
742 395
686 644
636 311
764 297
838 608
324 112
750 315
329 75
186 470
84 507
261 423
595 151
444 697
670 152
218 612
930 317
568 272
112 31
665 381
702 756
169 104
43 297
351 719
815 161
356 333
266 24
160 176
340 873
841 644
842 282
575 552
737 491
924 93
738 772
150 181
246 308
472 672
484 745
893 701
621 472
386 608
788 575
678 298
129 462
863 431
422 853
919 622
902 20
78 769
906 219
637 696
240 734
380 711
569 387
260 389
880 242
58 79
573 177
746 456
833 566
924 80
46 51
99 44
279 859
61 678
64 29
362 857
769 15
842 591
421 506
759 80
404 266
281 98
519 759
449 587
138 899
214 437
195 773
179 136
785 805
570 85
627 723
480 446
369 522
575 403
722 709
486 706
98 644
909 317
307 706
180 169
812 896
177 662
519 253
207 656
634 89
854 835
232 590
925 860
506 622
749 45
836 790
291 375
240 195
612 302
367 278
208 675
427 728
409 736
874 475
674 300
13 840
267 661
89 482
513 861
473 835
607 32
844 342
628 91
832 310
669 487
249 228
909 398
710 577
768 406
554 498
737 50
81 490
525 423
99 467
360 264
305 795
471 630
144 52
144 364
915 776
71 835
810 612
848 703
493 841
869 113
794 170
671 463
892 355
552 672
128 683
338 86
715 884
221 626
315 354
485 851
7 104
335 623
43 598
818 332
912 913
341 793
506 149
523 761
859 135
493 633
775 103
421 195
882 201
68 300
602 683
72 807
14 910
436 837
485 118
846 150
404 411
249 65
371 808
88 265
823 253
545 537
730 218
60 849
824 27
521 895
517 589
422 894
276 861
477 142
207 614
10 827
410 113
799 505
908 285
505 437
893 356
395 373
492 8
747 416
702 346
802 393
6 776
44 91
7 97
262 747
29 20
929 507
140 582
253 459
36 122
93 546
222 48
77 808
903 785
280 65
193 876
48 562
837 675
179 296
596 478
81 139
534 88
609 716
68 74
906 441
309 701
671 300
717 734
250 709
694 130
536 492
419 217
552 359
735 771
721 592
229 19
153 873
351 522
389 803
722 316
860 712
270 773
289 30
59 774
478 54
476 796
65 904
773 623
85 778
231 426
926 148
216 65
397 585
2 452
480 826
24 478
443 698
405 879
18 329
595 286
711 859
655 254
911 437
269 90
915 877
181 136
903 455
274 39
721 306
403 313
480 490
389 886
24 221
357 503
512 637
105 66
217 23
677 62
207 739
774 755
99 118
332 187
178 464
687 702
504 577
174 461
144 598
841 880
105 203
551 287
37 891
919 876
386 248
631 422
111 62
653 715
319 796
268 866
838 713
837 863
696 797
34 668
398 321
533 251
717 366
917 156
557 592
418 847
525 476
569 719
398 84
717 511
610 155
581 348
24 671
450 828
923 250
619 843
263 858
251 853
820 53
768 750
259 722
888 470
366 6
811 704
117 767
26 235
314 313
817 119
502 11
639 149
730 797
290 209
91 829
772 522
241 232
701 359
114 515
405 699
136 417
9 693
798 361
446 578
197 19
628 812
510 511
899 275
131 701
613 342
744 80
706 827
317 132
267 429
748 213
140 486
215 30
702 757
222 355
60 522
705 54
171 476
796 867
781 923
685 889
837 468
334 382
380 641
549 21
768 415
110 800
807 203
572 775
332 169
721 465
775 361
778 479
288 895
266 677
637 297
766 640
927 562
567 593
552 747
185 441
683 470
27 257
266 564
269 297
909 798
305 429
911 206
774 894
454 794
128 98
516 38
699 672
918 20
294 649
81 627
557 578
101 11
820 607
824 538
589 667
241 885
737 104
760 728
681 396
98 505
462 756
504 651
547 251
34 624
516 361
4 755
573 593
918 699
44 602
460 839
121 623
116 311
717 722
652 550
611 21
560 803
913 248
850 54
364 593
147 21
239 521
331 175
226 558
813 298
27 219
835 751
124 260
443 891
618 354
244 17
502 694
477 842
222 616
903 313
899 224
23 735
746 315
140 286
696 470
218 301
104 391
682 156
573 475
40 889
78 721
392 647
302 254
398 359
53 413
201 316
681 618
157 814
596 230
299 629
635 189
563 919
802 814
676 158
650 324
589 502
75 529
498 30
540 587
584 773
173 132
477 398
670 663
603 294
360 756
293 794
38 301
539 645
243 183
371 874
745 518
407 551
484 139
691 53
732 772
387 927
740 739
329 212
628 920
682 365
385 412
152 602
924 200
543 315
194 301
267 33
359 496
362 276
365 210
930 698
921 903
807 829
442 57
741 675
488 377
872 558
484 720
200 670
125 94
805 871
537 761
37 792
810 370
258 599
890 919
244 380
523 404
901 232
181 646
432 313
765 729
711 54
269 31
590 630
438 227
151 452
205 119
5 549
816 415
550 100
725 246
304 702
775 753
433 286
588 815
252 355
307 261
806 707
36 282
411 513
352 682
924 666
405 259
49 718
160 124
70 659
289 21
878 209
93 693
684 301
832 430
766 464
724 33
230 80
564 29
231 51
286 209
141 263
653 739
200 146
787 822
806 118
882 63
2 355
866 197
403 577
5 669
614 5
317 155
104 718
157 348
175 919
52 728
515 151
440 336
259 587
811 456
278 302
480 593
354 119
172 895
299 769
83 464
765 24
529 115
390 391
788 548
606 743
681 121
849 290
686 624
71 311
307 331
13 100
305 519
14 647
918 115
499 51
1 65
19 312
917 489
242 701
518 136
812 318
867 870
102 332
673 128
345 700
589 527
404 38
918 67
475 1
919 671
323 405
117 795
805 498
905 392
483 193
926 567
341 680
434 80
159 822
56 568
878 623
510 517
810 384
385 426
495 435
264 90
83 254
856 73
265 877
674 925
197 319
625 796
329 692
571 149
609 525
187 761
507 341
675 434
336 119
878 8
845 378
357 697
212 156
819 492
141 168
322 72
455 115
517 66
421 125
495 218
839 622
170 904
561 40
101 383
194 252
565 475
379 629
27 646
187 415
774 681
113 319
596 422
496 598
667 490
7 159
173 232
55 635
263 764
583 86
669 468
198 559
219 598
94 492
844 13
18 409
885 425
637 321
505 822
229 108
339 369
490 889
72 826
805 57
491 602
76 836
58 459
167 543
576 863
283 431
650 567
431 104
869 92
634 518
911 842
212 750
857 247
693 174
217 80
491 747
111 249
568 366
266 293
371 49
279 311
618 18
140 31
183 453
590 20
159 663
843 718
82 840
609 138
518 359
921 707
422 463
833 31
830 216
637 604
856 424
657 201
752 516
571 306
731 533
99 671
919 514
684 80
189 289
84 6
467 246
732 698
188 184
473 86
700 915
274 554
421 158
645 457
277 52
461 823
850 739
621 8
461 789
836 274
489 649
734 861
842 498
697 794
124 224
365 892
704 10
44 112
600 203
636 457
602 300
638 749
770 624
805 772
535 773
628 86
386 841
81 554
6 257
887 349
465 94
686 385
806 251
791 608
341 254
323 415
560 468
309 554
510 101
624 286
628 197
593 301
703 789
226 251
889 297
241 377
243 334
163 524
435 349
402 728
901 871
494 583
23 98
928 594
407 340
837 822
856 803
618 334
357 314
243 279
5 303
190 611
463 180
451 696
499 74
370 801
848 780
705 578
188 146
688 677
601 196
160 660
639 516
803 490
218 195
642 820
239 577
257 466
538 136
190 578
716 772
150 519
129 113
246 70
763 671
584 27
488 325
548 446
881 402
516 10
202 894
538 59
91 910
423 90
795 85
137 866
328 149
227 842
358 115
358 629
346 860
570 197
554 411
293 501
276 275
421 731
614 684
61 292
173 863
871 343
620 85
727 20
179 498
34 774
533 698
442 414
661 347
720 233
632 48
560 829
154 546
268 644
195 892
17 396
398 462
698 167
554 189
609 779
523 423
101 228
72 672
341 128
899 335
125 254
841 693
687 393
481 517
222 857
807 292
544 234
410 433
671 313
491 645
703 776
767 318
318 86
735 720
897 929
444 880
499 435
537 458
77 385
331 913
137 916
706 73
300 96
229 684
219 149
129 925
749 624
91 365
733 214
201 509
185 411
396 867
116 275
153 322
849 54
834 293
163 37
50 714
839 52
119 196
843 49
93 125
810 647
189 393
387 746
299 380
392 170
922 604
322 608
508 564
841 702
553 529
158 90
865 458
412 527
519 662
3 849
117 626
7 322
524 437
321 696
330 406
82 514
913 393
824 487
677 11
643 247
20 703
276 651
152 292
188 629
338 784
745 336
138 270
820 915
549 694
114 243
250 19
898 881
295 777
639 245
759 851
812 271
82 419
372 822
95 674
304 420
323 576
105 405
785 299
677 210
382 253
729 377
627 312
882 213
618 460
573 759
596 809
445 664
581 796
413 591
344 258
306 481
839 521
71 340
640 657
384 928
296 66
481 535
64 46
465 203
928 557
873 697
481 698
36 908
375 300
307 926
348 219
276 296
846 771
208 696
652 793
541 709
695 383
709 355
784 838
124 63
615 203
824 541
628 597
235 561
95 165
408 602
8 255
248 740
618 120
912 896
417 668
164 853
561 45
220 199
900 446
628 902
5 3
460 629
905 13
286 826
858 833
474 926
179 602
843 873
415 770
440 271
95 561
866 119
406 617
91 337
579 646
356 504
709 22
177 397
639 286
768 744
25 152
880 135
163 517
111 780
350 641
595 617
919 80
852 53
193 624
333 806
268 102
805 857
153 11
665 1
224 863
613 475
592 113
64 904
265 70
229 925
730 601
477 534
930 797
507 873
460 718
916 856
633 853
331 863
140 637
851 100
483 587
555 197
339 184
803 201
197 186
307 291
926 68
665 291
518 911
787 325
650 393
138 229
376 616
802 915
745 28
879 94
308 75
131 459
24 271
258 778
853 759
102 439
765 910
363 338
593 457
145 750
817 762
632 326
330 290
497 562
775 53
777 302
101 741
317 552
727 259
640 93
450 85
378 566
839 24
841 713
471 585
403 473
497 470
775 767
661 513
120 406
97 611
232 176
583 712
363 557
108 181
524 469
865 803
76 449
175 864
173 495
376 186
376 623
693 643
269 273
658 893
108 196
291 435
702 851
439 880
518 785
613 55
670 539
546 80
567 592
381 40
509 542
275 58
496 104
96 749
510 156
7 68
723 535
722 129
361 196
427 533
87 876
508 535
396 616
129 641
665 444
719 753
697 234
632 55
375 490
269 68
930 926
515 884
824 844
17 602
811 672
704 709
670 836
412 391
523 786
181 19
503 487
240 134
55 638
791 645
539 334
902 221
263 525
799 16
124 662
639 154
141 283
671 770
695 526
491 673
238 512
497 556
774 342
560 275
905 403
834 283
857 503
298 604
640 411
879 53
145 617
544 85
572 637
442 221
723 529
723 68
228 827
674 886
605 898
839 746
474 554
571 136
554 448
612 641
852 557
154 888
182 586
928 15
512 399
632 366
142 51
699 44
455 551
564 750
133 921
731 541
9 139
27 804
263 522
637 163
123 927
342 1
108 508
47 789
344 827
735 33
682 447
404 570
649 379
207 504
405 725
684 162
633 196
449 461
105 40
214 79
401 799
12 883
131 208
269 54
333 8
848 622
815 900
7 662
789 867
206 412
881 520
401 243
493 322
420 230
620 882
149 406
261 753
903 326
796 412
109 149
356 901
842 27
627 461
331 530
81 699
704 413
806 696
339 211
871 803
799 6
178 886
266 509
324 627
146 271
789 28
185 467
467 675
97 248
634 220
151 340
211 57
819 694
749 290
64 876
590 631
717 853
771 654
791 889
528 577
707 697
635 379
358 11
801 717
694 465
548 484
217 390
162 368
753 724
351 621
296 478
404 807
386 502
243 300
501 848
248 492
817 58
397 850
34 727
146 464
180 315
489 753
646 743
260 371
479 452
523 319
725 412
18 210
176 29
81 586
638 61
798 796
382 170
288 743
240 719
131 189
739 80
659 172
271 641
762 332
528 396
105 26
511 104
620 380
622 767
201 673
878 613
658 869
534 780
42 525
380 464
646 464
338 253
765 23
107 270
808 657
855 36
849 910
350 792
539 118
150 286
150 835
279 179
2 634
671 197
817 454
472 631
656 580
847 37
698 790
534 496
719 321
632 451
211 297
744 157
597 805
799 866
564 424
13 809
307 116
110 840
56 255
71 905
131 162
258 550
704 538
634 282
905 834
545 77
374 529
244 361
485 562
565 509
670 818
515 159
383 182
763 17
645 520
242 297
9 437
119 45
614 367
432 391
737 457
548 93
894 315
198 9
588 244
554 420
581 85
97 301
794 509
336 104
136 21
915 914
232 927
428 408
928 17
79 644
693 164
715 475
695 929
610 911
366 52
442 877
632 458
284 286
48 70
747 113
286 527
84 611
490 529
472 60
790 175
78 539
314 21
766 869
842 740
893 430
220 423
2 388
292 779
601 513
774 627
296 718
704 219
408 264
10 17
563 627
564 213
214 273
314 586
286 876
401 660
862 43
700 450
187 842
666 139
614 696
686 206
887 620
263 11
27 429
567 46
179 10
217 87
163 376
189 741
516 649
439 842
830 131
890 787
190 233
90 645
503 425
896 710
859 202
643 809
625 534
710 285
898 473
475 709
385 441
39 523
916 368
119 623
249 778
105 13
124 319
359 245
579 582
805 80
589 355
537 325
383 782
176 692
632 250
579 277
256 713
542 221
141 531
398 585
198 545
700 473
250 525
538 89
153 273
147 88
118 377
887 613
449 854
400 740
224 139
418 67
442 895
426 558
197 129
229 443
213 711
549 866
454 549
56 148
455 323
718 209
4 860
721 230
61 669
596 451
546 624
467 273
342 644
786 794
309 647
733 33
433 755
296 700
80 377
886 28
707 666
445 175
890 83
637 709
330 351
358 627
72 718
844 796
695 336
136 703
516 744
519 876
370 459
97 304
870 85
926 108
32 528
18 82
588 573
19 343
208 466
557 480
25 759
45 886
817 168
447 381
585 718
44 779
360 695
608 750
643 490
521 92
811 718
21 424
37 822
75 282
173 519
704 543
411 843
140 554
694 65
181 178
643 838
93 923
222 236
758 34
5 522
162 228
29 297
216 795
569 281
473 167
183 142
831 702
132 54
760 838
387 925
483 880
688 718
670 121
394 316
508 856
817 649
803 728
626 877
881 171
661 346
919 842
370 482
885 86
244 834
912 52
616 821
926 904
122 233
293 13
360 646
333 414
640 427
107 513
56 162
481 509
330 407
258 517
338 814
523 19
514 750
84 173
339 159
71 541
245 391
731 283
805 75
237 46
883 871
475 914
495 800
99 542
923 16
541 577
618 302
928 197
674 12
175 754
90 896
161 746
74 86
717 426
307 442
497 644
737 450
392 824
871 335
502 406
582 331
692 578
7 692
787 324
473 217
428 70
360 622
855 912
760 109
82 425
725 75
139 856
830 16
323 913
433 14
531 254
20 602
917 724
792 285
206 261
270 318
906 583
561 221
356 149
805 527
343 35
418 813
569 379
664 557
226 743
883 22
459 696
831 643
333 532
191 513
872 261
743 119
618 297
137 753
893 838
185 330
179 145
82 592
291 326
92 43
809 719
241 362
314 406
117 738
140 751
356 13
204 797
620 68
69 218
640 10
198 301
557 215
432 171
521 838
582 593
388 715
685 75
378 826
727 432
454 347
839 635
18 514
590 519
493 624
903 79
633 749
596 487
410 273
266 58
358 123
289 576
348 760
898 912
103 866
116 57
760 850
834 681
320 89
162 884
507 870
324 334
73 925
419 338
920 104
77 434
519 287
386 441
554 224
793 286
545 299
376 789
907 851
695 126
145 755
660 633
184 142
260 306
388 783
695 177
742 576
323 927
358 889
803 393
752 149
554 368
496 467
64 183
299 365
501 110
284 530
726 889
656 741
397 781
751 180
183 125
563 338
647 409
183 7
523 602
848 476
637 45
144 142
72 379
127 117
554 349
477 61
39 771
387 290
448 335
230 326
122 343
157 122
478 800
175 271
679 292
439 462
577 166
645 712
832 543
707 925
282 391
546 856
584 208
569 604
434 714
109 438
333 694
609 355
610 339
902 779
320 910
389 236
390 234
156 233
640 520
799 79
566 115
884 425
396 863
788 636
626 115
40 594
131 445
240 165
78 265
389 418
392 410
674 16
638 833
549 735
569 318
752 106
290 297
914 866
220 509
389 178
114 706
685 37
443 326
136 468
502 580
563 898
581 559
639 600
503 815
733 334
706 771
436 431
880 65
717 618
295 823
331 710
188 280
353 898
655 492
338 214
447 391
824 529
731 463
452 303
103 209
329 342
807 50
208 315
275 334
658 264
321 746
819 714
181 152
373 437
646 617
832 520
97 502
72 278
155 312
652 649
447 686
581 555
403 849
712 202
247 38
658 711
840 100
439 794
441 623
558 468
320 360
767 703
123 349
710 755
362 328
704 153
200 120
608 85
625 905
293 720
186 280
314 224
633 536
794 694
153 294
248 175
781 891
305 597
86 434
515 286
565 817
93 516
131 676
747 690
151 242
561 242
561 645
231 288
512 282
816 751
531 400
695 363
915 122
439 311
367 202
152 842
578 448
922 872
82 678
339 588
447 727
928 255
341 38
487 11
879 773
218 780
511 129
828 69
485 410
801 699
642 47
262 232
156 586
600 562
137 415
179 923
532 43
881 383
291 264
630 850
849 278
181 153
657 886
581 284
801 577
125 59
144 401
890 255
384 21
924 45
150 155
170 624
689 672
248 624
155 204
158 75
678 171
415 662
131 297
201 798
786 193
311 794
846 259
594 808
132 127
832 232
575 608
652 387
581 62
542 859
765 508
820 12
287 66
515 566
815 529
923 732
349 746
721 449
603 19
338 743
834 224
873 496
178 393
768 868
714 87
182 10
398 288
579 502
432 810
481 866
707 680
761 16
376 832
27 724
516 488
907 574
54 100
715 192
767 46
90 470
753 318
517 760
362 68
350 924
360 322
449 729
550 476
861 462
233 312
674 910
88 227
920 322
401 242
426 319
22 738
518 872
923 216
924 202
485 197
528 744
160 67
766 509
568 100
473 715
862 479
575 862
928 653
78 841
432 732
65 62
672 892
820 845
468 346
568 467
74 54
570 315
213 193
438 886
648 452
468 379
131 781
152 645
185 791
887 354
817 693
656 672
893 567
909 288
73 713
236 541
916 146
402 927
703 714
249 1
136 153
745 415
104 301
693 885
850 180
215 468
376 287
403 709
719 636
760 206
397 694
652 433
230 888
656 505
235 25
398 168
271 346
293 611
223 486
498 278
337 156
426 4
727 860
401 861
564 120
547 692
803 459
362 889
311 526
791 768
259 499
868 547
650 378
905 254
601 119
692 688
841 90
537 369
627 806
352 564
187 56
837 373
225 656
671 121
172 889
796 662
798 221
618 874
875 887
531 578
785 387
824 109
643 723
606 741
455 49
827 8
171 100
369 176
921 67
99 580
482 826
597 213
545 149
871 654
124 497
824 423
274 389
793 710
901 365
5 184
244 864
100 122
262 793
232 808
505 372
659 672
484 85
109 715
507 369
257 769
41 39
775 469
579 547
321 236
275 31
123 786
483 381
839 568
474 924
458 88
921 363
208 858
190 389
444 576
725 134
880 210
451 785
549 541
304 148
777 865
366 529
183 165
352 698
556 603
812 416
388 485
890 509
321 475
84 542
469 553
143 134
920 344
660 585
865 713
756 8
568 422
650 832
723 321
62 696
768 522
692 535
695 191
36 83
825 511
376 532
921 307
812 121
425 604
686 859
527 349
158 31
638 624
642 600
678 172
679 54
403 267
849 361
913 470
373 431
124 400
217 37
605 20
2 360
95 63
539 71
407 783
411 606
374 326
534 839
106 445
839 445
824 437
456 826
159 50
364 424
440 446
683 394
540 561
116 246
99 150
9 175
227 608
301 409
440 586
333 473
42 780
399 828
143 747
19 441
737 358
499 724
42 417
632 577
669 709
251 429
284 569
748 707
267 752
472 894
363 170
127 74
626 35
517 709
203 254
605 824
632 251
481 443
635 684
228 206
356 464
867 192
433 312
881 483
36 867
265 385
424 368
544 819
226 337
872 441
928 32
451 684
270 805
435 16
82 859
199 614
256 877
138 340
646 21
111 863
760 89
775 435
906 789
872 456
865 132
729 52
837 315
123 840
241 452
321 379
163 497
571 476
142 835
847 443
558 529
854 153
226 435
399 757
825 22
909 804
855 701
930 852
128 290
323 882
485 87
168 488
165 168
137 895
523 568
273 822
901 284
72 719
586 735
436 794
751 694
844 513
757 224
650 551
118 369
803 164
29 448
582 803
824 323
408 424
401 89
809 868
242 735
169 197
850 469
61 410
404 335
491 925
636 869
726 723
360 227
565 431
108 513
314 840
755 624
680 75
421 487
791 232
403 103
831 474
176 680
544 689
209 853
656 762
910 149
179 141
622 675
880 14
678 209
388 615
88 923
370 513
774 174
542 705
13 303
283 379
410 865
748 13
635 833
219 812
114 429
552 889
419 757
665 749
207 117
13 119
175 772
376 332
673 202
893 367
731 547
589 555
864 22
385 598
150 120
596 24
249 376
27 85
603 755
488 319
487 473
719 525
609 777
205 616
386 130
187 4
393 825
671 170
227 542
69 446
159 797
463 624
146 492
386 195
836 746
458 103
742 304
387 417
76 399
706 641
503 870
747 378
804 889
880 148
589 158
534 60
384 835
648 197
516 319
422 40
597 857
799 509
485 816
515 255
525 556
236 780
486 854
865 145
903 595
414 683
229 864
124 800
505 853
489 96
146 907
559 894
76 584
147 520
795 31
775 96
20 286
742 550
372 519
491 93
17 442
111 70
76 100
602 617
667 126
559 179
814 259
836 233
231 151
88 626
236 303
842 862
420 617
148 374
224 431
478 500
500 769
119 654
194 362
31 475
605 844
698 196
737 871
701 29
46 79
266 487
394 738
741 738
871 468
674 230
341 346
222 325
292 273
572 604
393 346
463 764
635 775
447 557
651 541
427 1
682 498
221 208
370 554
367 620
26 696
595 914
742 410
64 661
613 281
432 73
837 171
397 250
200 394
797 255
420 912
184 761
584 641
823 33
574 394
636 315
152 252
68 659
375 294
366 342
216 213
70 720
434 833
550 206
73 877
185 427
849 297
917 900
649 416
360 223
652 326
768 817
223 483
401 389
695 597
249 396
160 21
552 237
667 770
653 800
360 409
602 696
289 600
108 756
215 688
842 292
421 441
536 881
4 626
477 351
634 706
429 833
71 706
305 701
879 676
454 492
358 660
321 424
331 514
495 346
906 532
705 290
407 830
619 657
273 908
468 312
877 654
56 261
607 335
370 890
719 892
649 349
794 677
904 616
905 382
814 672
636 475
466 616
638 467
124 167
625 703
454 624
277 724
582 174
520 119
138 16
818 165
267 586
824 527
432 336
714 233
606 796
718 769
773 15
370 604
95 322
517 413
210 53
194 452
216 767
548 310
307 552
877 65
861 498
204 813
901 209
888 667
34 449
706 532
211 792
32 134
224 480
568 719
825 20
815 51
610 847
510 804
294 826
722 43
189 48
228 509
857 94
397 519
217 319
848 208
312 30
243 309
69 301
536 645
310 393
79 673
273 714
264 456
503 218
777 624
930 472
71 648
2 68
263 378
294 83
357 839
173 493
102 477
138 234
357 486
840 694
875 802
414 418
159 911
220 546
723 433
195 236
10 730
619 210
748 502
415 906
270 342
843 560
2 623
185 707
350 85
384 473
301 202
836 662
814 690
121 729
620 371
692 864
806 226
775 119
38 877
630 715
59 671
316 519
223 161
651 115
101 8
339 789
676 349
894 186
89 382
107 875
716 603
704 598
183 668
386 629
613 888
836 698
563 729
485 314
414 871
362 289
733 302
751 750
518 382
93 890
403 702
702 38
850 672
670 512
548 232
340 280
516 264
732 87
41 925
560 699
334 239
300 894
762 305
446 62
86 1
450 622
306 299
469 877
256 406
367 109
775 751
44 379
580 904
725 694
264 502
671 814
194 446
493 245
107 214
125 171
324 813
836 292
610 630
182 617
570 889
719 883
226 783
632 758
832 312
299 729
283 291
658 416
548 583
93 136
366 30
811 552
630 492
563 61
902 543
726 612
514 68
734 147
57 149
901 567
742 612
261 321
526 74
358 797
495 699
146 421
669 202
76 38
131 222
227 210
583 469
407 544
924 803
728 759
348 282
568 246
568 299
881 31
571 732
401 241
657 459
845 171
313 42
241 802
25 587
244 89
299 126
683 115
502 566
67 672
105 328
30 578
469 541
44 438
734 11
156 413
329 892
494 602
173 658
134 684
543 126
887 345
484 545
130 245
105 812
414 176
87 644
552 792
247 115
6 651
848 333
704 267
265 576
211 622
877 709
601 192
177 19
426 409
493 424
221 889
646 780
810 861
208 280
485 601
392 922
272 732
872 132
51 297
162 819
89 337
606 174
590 89
367 309
101 505
781 873
247 736
585 36
825 900
307 192
642 376
364 444
401 79
185 760
369 452
352 284
153 746
695 100
816 240
814 863
853 85
47 313
160 494
214 856
570 451
105 489
268 219
60 706
888 301
44 30
141 322
264 284
174 287
775 825
678 750
435 648
521 914
920 658
831 882
408 316
227 192
112 589
724 703
761 14
123 19
468 139
276 334
427 481
332 683
352 676
495 292
26 752
889 387
427 76
430 75
638 876
252 740
588 385
554 74
496 62
403 730
305 467
868 302
906 889
282 66
189 757
231 37
686 659
18 306
521 646
494 648
575 673
105 907
7 163
18 62
358 168
450 626
587 712
801 278
680 192
827 464
848 577
575 123
246 914
390 375
690 425
670 798
767 286
538 498
297 910
925 205
422 804
24 723
4 476
740 67
207 247
180 829
652 416
375 732
676 302
677 440
382 694
532 413
737 840
150 866
477 77
706 408
320 323
650 469
734 314
384 377
809 340
179 377
78 537
461 431
357 920
695 487
547 562
144 800
495 754
9 748
914 649
31 915
292 821
558 463
269 710
477 367
426 771
650 508
137 844
120 770
458 798
503 752
568 711
16 644
516 740
131 75
594 337
614 195
176 121
10 341
311 162
306 633
725 680
875 654
231 657
568 1
785 525
861 644
128 776
609 449
21 750
478 417
320 582
262 199
409 196
844 914
566 346
17 414
295 927
251 209
682 408
702 753
267 865
562 769
108 602
48 462
546 389
358 90
748 137
809 823
752 519
516 7
220 708
60 606
404 387
419 303
323 385
274 636
878 305
929 292
306 7
742 331
569 192
59 353
53 778
221 440
898 216
849 442
332 298
761 680
650 118
248 853
9 793
733 3
252 161
414 506
159 520
473 196
402 879
59 306
97 251
61 384
584 794
890 383
537 461
672 747
267 212
360 690
288 319
491 472
680 38
568 564
593 422
898 498
43 301
298 63
229 10
191 711
216 871
160 180
310 654
126 115
444 33
614 780
393 927
160 638
548 368
676 606
78 554
789 793
313 80
556 577
152 466
317 467
137 386
552 716
822 355
162 914
14 45
485 31
605 510
787 674
2 739
477 749
200 69
834 271
637 293
250 25
229 693
503 480
534 216
664 871
777 429
663 444
458 691
761 856
520 604
444 73
134 789
691 517
781 326
288 201
177 728
929 187
659 556
911 711
474 625
845 606
730 45
440 171
884 96
56 747
211 713
635 224
798 629
360 519
352 623
548 882
493 858
132 507
372 19
405 649
881 473
282 62
193 38
193 617
928 63
260 402
666 692
147 271
288 643
782 342
273 910
739 600
60 434
795 753
445 239
117 250
304 868
852 129
841 150
650 645
878 109
236 728
274 167
455 307
2 621
811 897
332 113
650 257
279 1
680 94
745 133
138 125
227 170
323 740
307 789
614 171
329 256
287 821
883 476
916 822
590 894
313 653
740 453
614 284
634 694
355 500
613 468
909 27
857 514
127 88
509 653
793 424
58 722
575 928
852 622
176 524
347 864
656 459
824 752
363 804
109 312
632 925
443 236
292 527
367 469
44 603
575 378
575 817
388 40
836 204
503 91
218 208
411 151
917 722
140 55
921 732
884 208
647 20
408 510
29 861
784 105
235 812
676 740
364 793
807 73
633 100
374 86
7 778
281 911
504 470
852 304
178 30
234 67
583 550
311 877
534 633
666 310
911 594
467 543
744 321
377 792
286 712
32 551
640 12
824 208
329 178
515 393
111 295
497 87
78 905
65 527
262 751
874 600
175 113
389 213
372 31
308 89
145 649
609 172
220 162
185 274
170 70
650 307
268 368
64 812
9 66
305 696
88 56
548 25
345 609
241 459
145 471
742 201
395 205
918 255
77 693
336 615
61 219
227 866
188 411
195 566
489 143
549 433
288 644
809 822
799 902
275 139
295 505
482 271
700 119
192 720
914 690
798 464
744 677
460 582
270 322
881 782
509 624
556 110
493 726
350 556
77 844
455 413
655 482
797 115
430 242
583 472
134 665
19 896
254 470
444 894
754 902
242 851
719 743
152 23
542 659
872 742
176 792
656 743
288 449
758 195
65 315
846 149
918 246
829 126
650 928
386 258
545 228
754 714
360 41
802 64
568 67
785 579
324 857
18 28
383 473
58 391
495 755
223 414
266 31
596 529
635 557
135 578
770 587
528 294
834 110
89 193
918 216
470 45
56 668
861 361
718 729
421 267
42 915
99 862
334 294
522 623
441 530
155 74
49 406
655 850
430 686
842 221
539 765
845 746
383 319
495 396
371 351
723 178
890 603
165 606
505 677
34 405
605 639
436 862
56 47
898 202
311 500
819 672
848 908
41 587
405 42
133 213
77 617
212 773
536 126
502 321
414 781
787 168
110 156
19 245
538 475
854 525
903 545
902 555
544 526
427 130
48 168
798 616
892 840
397 433
537 136
619 683
290 835
628 678
827 446
846 772
350 83
400 437
353 587
172 598
485 94
875 7
529 712
397 631
484 611
10 161
185 882
848 35
26 476
725 872
84 869
776 203
371 297
627 98
328 209
768 21
220 652
811 684
360 891
846 605
133 222
320 507
107 249
673 604
801 663
14 115
567 235
472 283
494 198
199 323
539 7
595 537
101 666
281 673
599 97
183 672
689 79
697 233
146 289
795 75
256 481
296 259
118 509
371 550
708 466
231 461
827 378
17 95
716 402
845 668
75 161
59 301
575 89
478 755
227 167
227 519
335 709
191 799
124 376
852 125
384 346
183 724
670 156
154 743
191 630
581 504
507 259
393 316
565 196
783 189
698 426
628 498
496 794
691 113
394 459
358 904
107 510
179 925
56 689
328 587
203 412
494 184
816 914
270 62
317 140
802 130
175 900
72 443
418 750
194 677
277 629
518 403
65 354
44 372
386 457
745 84
874 167
388 545
909 868
107 201
25 524
56 911
451 293
313 475
574 479
461 797
248 812
357 860
195 452
288 151
567 249
551 867
271 342
848 817
213 448
127 601
115 285
117 726
27 242
66 705
512 49
235 234
608 726
185 307
647 886
125 633
187 520
512 223
26 115
852 782
524 355
241 29
819 690
819 873
95 690
272 223
198 468
240 457
681 693
39 429
887 206
282 738
852 893
131 576
908 452
68 377
644 587
269 115
749 862
236 490
881 80
39 425
495 687
495 858
166 910
6 395
812 514
64 27
501 759
928 917
528 746
818 473
375 50
214 379
416 302
414 873
474 675
514 346
809 215
901 342
872 888
143 423
812 653
140 119
899 341
640 509
134 387
453 8
852 310
71 916
679 782
761 67
499 326
893 257
365 867
180 611
584 650
905 761
605 150
860 130
127 886
70 130
534 776
274 686
151 418
153 514
401 918
615 598
890 390
706 795
567 662
266 457
893 667
363 522
288 504
473 126
843 331
862 53
114 288
837 467
258 264
684 231
191 409
542 520
779 374
229 206
898 44
13 103
179 396
252 750
382 862
607 259
774 431
854 247
430 176
360 599
92 343
552 768
275 676
275 91
614 616
557 529
905 395
926 389
855 289
639 120
397 660
605 256
671 853
717 843
221 230
757 468
408 840
580 771
748 304
510 652
44 889
154 842
362 499
287 15
204 825
55 99
332 676
793 910
921 65
371 182
775 305
687 644
386 467
871 310
727 557
728 629
112 915
641 927
877 22
743 196
570 718
862 463
404 152
407 337
635 44
375 162
267 631
268 804
163 476
150 533
718 526
368 121
872 804
812 713
499 139
444 792
323 514
506 302
765 786
273 202
70 456
78 878
461 251
493 433
726 866
67 92
106 33
131 300
474 525
400 664
534 576
519 770
520 164
443 282
523 612
194 668
601 319
486 348
150 372
485 413
430 30
25 379
64 415
249 411
174 337
345 855
512 29
236 615
605 368
258 44
145 690
922 73
48 72
77 194
665 561
405 384
472 536
763 524
173 228
178 676
178 314
568 910
651 593
60 576
848 569
336 910
905 115
856 543
837 617
270 490
753 764
352 248
261 722
360 812
241 433
637 886
357 889
836 279
638 202
638 397
453 91
137 719
898 293
594 587
150 85
206 118
541 337
634 629
874 798
618 747
537 52
620 251
632 318
141 302
181 316
915 209
780 479
921 290
187 73
43 577
544 677
793 452
232 679
908 16
857 917
89 259
596 431
399 282
768 516
112 479
687 546
574 508
504 443
283 917
70 53
143 476
496 425
699 490
565 910
442 113
408 129
444 154
135 54
708 193
727 103
160 412
640 33
15 347
188 796
908 747
610 457
258 671
284 230
922 438
564 843
698 892
583 612
875 55
512 235
642 460
236 747
569 62
265 439
647 759
155 733
230 580
928 347
215 269
360 706
548 435
276 458
736 729
365 4
871 321
790 47
810 492
793 300
243 357
668 277
905 560
187 443
637 706
429 509
602 586
568 779
237 895
683 66
207 275
757 691
574 91
795 449
503 826
410 728
529 29
839 429
883 696
790 196
518 642
595 726
554 832
925 644
704 79
158 440
17 580
235 141
716 322
440 851
226 457
909 777
390 705
607 237
853 541
433 479
267 736
745 258
344 515
199 229
458 417
823 385
811 495
545 514
451 783
124 447
556 492
659 83
878 325
642 613
348 202
591 62
519 301
116 94
656 176
82 26
388 333
84 572
177 502
801 873
34 770
329 914
240 248
555 172
611 475
26 914
812 277
43 551
445 391
265 46
446 672
322 498
68 549
829 826
659 413
399 448
440 858
701 526
38 286
114 423
684 402
188 788
155 868
745 561
372 851
47 441
106 544
675 282
34 398
363 588
642 113
20 122
511 422
97 803
903 687
722 697
382 556
10 48
478 482
601 499
213 66
750 813
362 623
128 870
148 828
488 191
757 348
786 328
61 910
320 835
630 110
525 202
194 273
729 343
650 559
786 45
589 546
818 384
111 281
370 847
297 8
921 287
299 483
384 592
450 384
657 792
655 317
802 753
736 895
536 257
84 457
882 533
462 416
5 744
262 494
7 579
905 451
485 581
508 560
414 579
73 520
185 531
700 182
799 719
371 248
745 880
834 22
618 276
123 453
12 669
329 862
655 513
763 423
845 544
439 819
552 176
260 585
636 336
670 547
29 425
432 35
929 763
457 543
198 288
521 310
878 891
312 739
810 174
330 641
461 541
575 825
597 166
272 277
357 604
926 434
358 239
893 464
701 326
625 552
555 612
55 58
439 106
59 885
595 496
524 908
320 45
874 652
563 846
444 598
136 193
35 530
399 648
533 101
383 66
339 342
242 543
612 738
49 671
831 320
135 130
190 550
637 742
138 520
140 207
485 735
141 557
117 366
72 69
538 899
875 858
200 154
316 171
744 798
836 727
84 924
247 672
550 677
285 600
360 278
308 751
664 394
334 224
443 576
247 196
117 212
669 135
617 772
266 81
654 94
431 692
63 441
626 603
539 762
165 504
666 37
214 435
98 675
192 522
689 844
507 348
676 747
364 213
661 596
784 56
132 585
538 724
225 300
818 912
137 341
528 648
526 391
12 659
514 874
307 152
569 237
233 203
610 12
791 634
809 821
921 2
316 858
226 261
533 595
924 25
691 245
32 129
621 65
695 112
75 37
592 329
921 773
761 454
524 819
246 14
356 141
816 25
12 31
710 535
305 838
700 117
560 615
243 533
869 190
890 600
467 649
505 113
267 894
745 349
270 563
177 14
36 815
138 309
901 824
494 390
574 299
237 718
800 522
392 566
567 755
363 882
567 237
745 104
272 871
419 325
509 66
314 430
775 367
356 37
183 296
450 62
508 886
144 23
265 431
237 230
610 845
76 164
481 263
337 205
579 602
391 349
602 172
912 12
676 253
179 575
237 119
93 402
457 161
61 385
884 172
666 611
323 301
101 626
435 354
2 708
214 819
677 710
803 860
43 895
844 765
131 423
61 826
356 817
411 11
212 119
68 156
584 589
767 171
860 778
485 761
3 180
518 789
353 722
24 161
640 458
127 189
305 343
345 277
71 22
695 525
259 662
663 121
774 339
613 457
279 186
872 589
326 86
428 155
340 213
51 423
213 764
141 826
534 142
537 666
267 232
617 580
3 919
194 218
688 469
177 91
125 357
555 161
189 285
344 99
455 78
682 158
791 528
222 160
421 848
521 333
697 70
48 285
480 91
693 648
344 505
855 300
658 886
510 709
132 888
204 861
388 265
559 527
525 224
128 858
581 542
912 235
207 613
913 838
436 67
550 838
883 167
296 832
351 336
117 168
317 139
246 19
913 395
849 840
196 876
124 50
917 892
58 781
191 65
847 527
669 461
831 284
607 572
9 96
68 580
48 389
562 649
583 698
214 502
380 573
834 172
571 462
400 232
148 894
404 736
613 212
524 753
745 764
266 794
429 318
837 540
155 429
824 405
436 622
808 591
843 301
523 308
185 93
386 403
776 482
406 45
420 186
725 406
16 301
211 762
453 641
255 379
642 653
457 203
534 903
362 713
921 340
510 372
888 289
760 598
64 291
825 87
526 535
177 850
161 437
200 653
785 716
865 396
590 414
386 799
648 502
258 792
243 753
445 714
10 556
10 121
138 50
563 696
123 7
657 120
323 633
553 612
808 252
682 567
383 675
168 91
849 603
774 111
685 245
173 470
399 807
528 747
107 478
54 273
419 353
539 883
885 99
543 120
121 513
618 833
565 907
26 472
142 169
401 462
753 561
493 683
721 818
81 358
27 686
357 619
340 226
267 770
541 860
698 553
695 649
82 457
443 747
7 369
320 425
9 549
818 821
229 685
322 676
876 456
852 118
236 482
164 135
842 690
848 895
384 660
614 52
557 366
113 910
651 290
246 346
763 403
875 189
103 740
454 674
73 286
788 198
555 341
350 595
222 804
557 437
663 633
99 100
157 891
247 659
837 927
5 91
309 720
432 244
225 597
570 695
476 586
292 591
39 461
131 884
297 73
333 827
773 598
504 899
838 280
128 542
626 53
536 821
721 836
921 215
461 193
889 67
216 828
267 904
415 819
54 368
642 464
131 95
3 914
634 190
376 420
330 9
927 629
548 161
734 877
552 292
903 715
13 790
917 500
666 910
352 277
631 511
704 495
371 669
852 98
211 657
921 111
486 309
824 740
788 263
143 861
432 596
305 109
407 45
281 178
247 103
620 789
252 287
279 361
364 142
783 647
819 271
614 79
240 228
775 152
730 261
463 234
570 12
634 19
240 681
231 773
89 471
363 507
623 361
733 526
455 301
791 423
26 761
406 94
743 483
761 349
88 818
272 383
732 592
477 640
60 424
170 312
446 562
816 821
157 845
799 418
750 617
141 767
435 180
626 212
517 771
240 753
478 314
922 686
405 826
226 444
373 315
248 679
224 803
279 593
801 8
916 743
787 708
299 649
922 721
169 286
542 377
284 684
763 892
360 474
394 713
269 918
590 767
350 693
564 794
150 300
596 159
56 840
229 301
928 615
637 235
309 845
865 337
768 683
485 809
309 778
91 203
326 685
275 589
807 732
370 277
152 373
61 389
248 569
857 210
911 151
895 50
906 312
680 33
538 690
57 627
5 56
422 16
478 907
392 638
599 853
450 767
468 646
893 414
288 862
262 333
49 832
573 589
332 469
834 519
651 497
317 786
303 562
928 180
160 633
474 73
12 294
39 869
249 97
905 196
542 62
818 543
564 530
411 450
632 228
341 466
306 545
785 738
721 646
752 858
26 897
135 755
260 741
320 339
581 327
618 723
380 72
565 419
52 778
309 159
741 145
497 58
153 629
282 678
677 519
57 164
493 733
222 56
415 636
581 200
272 298
590 19
590 452
407 449
762 617
673 145
214 882
140 881
756 171
676 600
643 560
907 823
353 544
922 310
798 506
484 614
841 253
36 257
132 776
807 135
662 325
574 43
523 340
597 709
891 382
801 106
820 818
307 219
415 384
681 177
238 139
433 626
204 47
842 22
262 70
125 390
625 478
391 870
820 161
819 859
627 876
146 4
533 926
806 340
922 250
464 142
561 336
528 685
396 87
322 209
503 729
459 653
147 371
240 831
810 42
757 205
211 863
65 113
266 665
780 741
537 555
491 315
398 149
642 706
537 514
841 766
846 489
388 798
660 294
689 402
11 679
656 144
144 68
381 254
336 285
112 3
601 751
700 201
258 468
427 321
156 129
820 627
910 302
839 380
822 1
328 176
515 228
859 379
488 170
294 708
722 694
154 347
707 195
598 406
268 602
571 309
324 878
399 225
493 262
366 108
539 497
277 74
64 68
521 812
181 83
892 377
395 435
307 867
532 13
262 595
882 643
408 215
563 255
445 415
619 572
6 826
670 616
35 210
454 514
455 223
899 870
515 561
846 99
811 196
902 794
82 235
64 354
101 232
613 265
763 672
434 470
490 68
716 571
310 507
700 266
2 533
901 82
6 53
689 543
725 169
486 152
768 543
126 446
72 369
352 343
794 303
631 723
871 730
801 311
107 610
839 881
147 238
811 608
591 747
443 586
243 396
501 657
801 125
432 179
841 848
631 636
256 65
274 352
293 196
419 177
368 470
371 902
597 475
494 139
386 139
46 441
270 926
103 184
911 426
733 1
291 50
183 693
367 263
849 524
721 343
260 930
523 601
407 632
559 350
598 853
485 734
803 440
930 573
804 252
805 202
711 714
489 779
93 787
900 722
848 675
488 92
244 481
571 750
875 705
622 303
34 812
552 167
608 393
614 542
3 676
127 478
831 618
555 587
881 318
392 206
64 423
195 204
438 797
523 339
78 428
306 847
660 258
219 210
351 396
98 672
762 549
678 738
887 864
907 475
451 861
814 237
749 895
56 42
784 804
257 255
77 470
721 114
721 328
650 638
540 241
9 257
601 786
637 41
485 268
681 895
470 527
414 776
824 47
60 589
185 64
811 705
188 512
49 880
212 292
359 543
123 323
713 167
183 645
592 796
237 311
650 775
117 353
61 436
104 746
76 109
160 432
159 877
716 414
57 308
311 577
185 290
313 341
198 92
706 826
239 172
781 611
741 519
344 743
843 869
109 910
865 807
663 328
540 771
243 410
283 234
928 560
619 404
245 712
235 757
90 167
342 764
9 631
283 747
518 718
810 927
650 712
631 702
140 604
528 842
48 767
525 835
342 63
878 416
182 496
73 796
590 283
204 498
23 719
923 286
890 170
873 402
528 430
552 676
216 85
199 297
787 904
516 74
286 578
777 239
528 880
427 418
218 490
800 379
512 263
752 577
830 406
291 914
111 680
548 795
84 370
369 730
261 641
810 731
320 509
546 250
325 612
731 737
72 365
560 159
348 880
437 630
222 841
295 45
44 601
687 842
597 771
596 91
232 83
692 553
39 11
859 158
784 885
537 744
351 513
495 624
929 176
171 870
596 77
648 373
465 8
133 640
688 710
397 57
827 883
554 729
687 784
460 671
844 915
17 174
887 847
376 87
810 153
530 895
621 265
381 261
695 722
916 112
792 62
321 171
632 754
264 12
284 87
845 373
14 685
515 565
29 535
386 44
631 652
279 710
211 65
564 182
686 505
693 408
822 611
878 177
568 308
842 347
243 7
5 684
477 355
209 446
465 1
174 166
450 621
726 749
604 577
625 185
793 776
60 236
758 511
608 547
544 764
872 153
788 878
745 467
607 581
369 382
44 261
561 437
194 867
928 10
782 213
547 829
622 355
327 886
332 616
551 424
554 92
661 728
369 463
593 754
614 617
907 750
229 811
428 909
909 185
920 264
296 476
695 87
681 298
239 203
666 414
351 344
832 906
909 649
104 710
504 43
323 443
491 587
309 441
244 420
242 876
632 657
814 452
279 502
407 573
138 51
638 790
548 45
72 894
570 30
680 381
800 535
844 747
621 377
846 692
153 483
9 294
216 91
598 21
526 822

884 5284
377 202
12 354
458 282
533 729
605 498
100 515
751 761
159 848
621 357
715 682
815 799
411 743
817 600
448 720
547 124
710 728
186 176
291 592
551 235
832 476
28 469
375 95
303 418
530 418
490 688
287 718
822 602
625 766
475 499
822 32
428 333
649 496
801 851
852 713
83 323
559 882
856 524
448 521
341 76
290 465
388 118
408 242
438 148
205 876
719 632
227 166
686 190
548 17
304 515
753 55
250 323
448 763
768 711
397 379
733 310
327 691
570 709
94 287
331 526
741 97
652 759
45 223
266 579
854 1
874 73
782 651
218 703
89 624
860 228
326 775
327 143
442 727
663 760
170 141
758 719
27 115
588 33
333 245
209 554
322 525
768 298
824 424
474 458
516 610
257 352
385 427
611 548
741 392
227 197
373 110
428 271
817 819
105 737
686 626
253 819
490 443
737 142
276 382
793 455
206 251
405 521
852 252
601 654
670 464
63 163
140 733
242 515
515 529
262 529
737 255
721 101
557 796
481 118
585 340
82 400
231 38
306 644
842 153
438 562
95 248
61 653
478 581
558 366
135 796
707 423
172 509
384 540
434 74
696 265
626 608
145 584
216 535
634 221
10 454
742 671
303 289
586 119
549 84
163 60
772 504
663 204
116 68
118 352
137 364
726 446
619 784
798 556
140 143
31 509
802 745
164 5
241 669
458 365
295 877
619 519
290 141
99 734
26 34
579 72
462 588
122 549
618 750
806 110
657 825
226 784
437 137
396 308
36 95
624 291
820 86
460 546
832 603
852 628
10 139
462 51
393 212
180 169
430 819
145 606
253 415
127 549
643 267
882 497
383 753
205 721
633 238
700 553
264 412
194 408
212 192
63 741
549 488
329 679
401 210
554 424
169 763
538 91
332 302
350 476
359 133
271 816
29 596
158 872
710 693
509 773
397 358
163 383
290 365
131 262
620 858
114 382
151 859
669 78
118 234
361 655
764 550
670 621
100 854
157 6
824 296
861 253
347 46
358 324
644 645
95 591
78 615
151 375
635 870
255 185
391 883
158 689
748 132
74 538
843 152
510 569
256 204
224 93
684 54
794 89
279 127
781 454
172 687
484 92
395 62
568 721
161 781
146 14
158 92
665 743
684 197
478 284
206 641
407 341
725 458
798 542
692 626
270 809
837 214
425 607
436 507
771 101
826 847
741 829
255 136
176 293
614 519
237 616
836 517
448 846
345 332
625 255
42 310
721 790
126 93
61 664
329 740
355 528
756 825
210 277
726 170
656 647
750 528
566 451
587 7
695 318
533 79
347 539
404 405
103 712
482 498
390 351
249 76
345 809
109 782
609 641
17 306
660 755
36 307
701 591
831 191
501 371
671 572
448 214
240 520
142 535
786 57
815 155
769 346
485 223
771 383
443 293
833 527
794 831
744 254
173 188
122 574
234 153
656 367
379 69
397 489
179 837
117 778
384 34
729 529
298 37
100 348
525 440
219 871
32 409
802 556
474 425
864 460
753 357
77 124
187 81
418 674
601 316
736 197
45 19
779 248
284 698
547 209
13 546
12 254
368 432
331 4
332 203
646 445
481 631
372 703
66 382
528 317
865 81
430 91
73 144
291 380
32 135
538 362
558 834
239 728
456 52
209 366
715 498
818 42
438 467
820 826
288 320
343 432
456 375
130 703
764 537
442 765
352 440
280 645
155 685
211 495
446 561
267 385
142 608
768 260
456 561
778 795
520 250
117 627
831 348
561 357
625 267
670 431
195 502
747 709
658 335
162 296
802 610
680 309
402 708
756 192
331 576
244 807
163 292
230 781
28 544
643 396
549 695
714 3
733 357
92 659
797 157
256 257
645 703
758 279
831 615
271 33
559 409
300 493
73 422
585 739
857 70
345 303
109 471
414 566
185 270
244 197
635 735
831 853
726 864
451 421
604 357
469 505
125 572
158 622
146 483
682 612
241 412
274 834
59 56
777 67
860 681
173 389
797 128
122 802
448 625
251 839
13 92
234 78
860 726
677 53
163 198
255 25
190 341
4 543
757 199
158 217
228 125
780 258
673 216
478 210
12 878
519 851
288 605
347 345
347 780
386 225
406 782
37 422
142 479
815 634
857 404
180 562
549 348
551 541
218 531
859 363
651 545
21 633
557 20
335 183
374 264
691 464
451 855
621 292
234 38
414 584
443 277
159 527
634 153
828 644
596 339
26 437
539 299
428 471
86 799
93 612
588 2
309 116
875 121
605 200
458 147
847 80
500 351
462 530
856 773
673 209
566 128
839 403
729 155
832 160
602 542
858 395
481 832
812 764
79 464
500 206
370 826
157 358
485 41
675 674
537 147
549 778
271 738
326 838
438 383
609 365
755 506
719 667
599 830
782 696
562 647
808 689
763 689
12 241
577 578
568 215
767 724
788 626
74 509
511 757
21 141
421 360
580 276
443 215
707 610
318 282
7 281
575 210
552 734
450 443
197 844
658 194
770 843
788 30
862 509
838 752
719 412
386 397
280 365
710 709
119 346
84 594
32 584
533 728
533 334
578 455
772 71
369 435
530 265
647 698
210 783
544 46
442 1
410 694
361 220
658 90
165 479
620 289
312 610
331 270
443 479
868 661
663 66
617 600
24 132
290 424
105 199
584 761
253 721
217 427
309 538
550 616
609 727
702 532
431 409
336 413
99 368
339 581
284 661
467 175
858 709
461 62
700 602
577 784
5 296
826 420
31 871
739 246
343 508
550 252
92 188
789 2
846 461
226 535
595 813
134 855
618 84
267 341
492 289
335 371
271 175
221 784
789 115
511 508
814 432
852 437
748 3
48 393
601 421
585 616
451 385
180 833
498 189
109 59
717 497
666 830
850 201
614 310
121 72
448 605
711 727
638 845
87 217
878 636
179 735
860 479
163 569
455 480
442 506
724 321
669 255
373 162
266 306
782 684
804 412
399 391
399 114
699 133
662 267
149 753
331 754
755 773
368 436
794 876
7 521
600 137
232 302
635 25
117 615
197 592
676 601
641 556
22 464
557 240
219 535
333 47
105 762
167 603
344 129
877 489
698 454
240 301
657 832
629 376
70 1
547 243
615 693
194 700
499 265
105 322
489 104
142 50
164 251
609 594
114 870
780 337
138 800
48 89
142 575
448 707
32 168
877 192
606 390
398 843
555 241
633 548
761 479
6 299
745 200
446 34
738 527
359 839
15 623
559 80
342 548
54 649
418 150
129 358
334 710
494 302
149 294
408 299
172 137
690 385
102 718
324 348
333 744
610 626
738 104
741 251
557 709
259 139
28 482
265 784
268 612
504 704
339 448
767 770
652 138
770 408
455 470
330 246
739 219
665 796
758 158
406 35
688 651
211 513
857 767
660 447
329 483
144 713
25 576
290 803
520 84
328 385
244 380
884 2
815 515
451 487
486 401
699 349
52 685
719 150
190 405
743 44
673 46
341 535
765 586
287 463
738 212
538 412
388 117
519 784
38 34
155 258
798 402
564 561
190 57
77 867
13 107
879 165
787 636
130 604
807 136
355 501
831 229
779 572
84 654
122 383
527 139
715 513
339 570
550 685
91 709
735 20
127 476
259 497
166 454
597 412
25 700
652 584
411 663
359 256
111 498
722 416
259 145
36 178
609 208
518 384
315 528
453 319
690 317
502 264
106 609
429 583
640 169
676 98
197 732
523 732
684 840
222 155
42 232
116 119
643 817
869 42
428 91
49 711
782 793
70 650
567 200
143 191
511 876
39 126
817 760
133 570
191 394
565 417
135 92
129 639
775 774
198 677
523 827
399 812
56 254
609 291
772 836
219 403
725 732
165 859
466 123
484 878
490 696
622 641
71 133
808 349
772 790
525 347
762 595
852 142
815 599
712 718
693 308
298 790
197 709
588 251
875 215
534 27
761 418
314 637
629 151
830 8
499 110
597 259
762 127
212 810
525 380
321 627
628 189
410 556
714 250
109 756
438 734
748 167
205 256
109 381
830 556
290 250
355 249
94 480
69 587
33 58
532 212
259 610
735 26
277 670
810 696
460 159
614 55
852 467
157 313
122 71
23 432
694 127
567 487
881 447
826 47
793 473
4 52
443 570
777 609
870 646
136 705
411 786
655 576
711 359
141 80
659 56
547 93
880 571
511 653
615 842
363 166
352 703
99 7
484 792
225 827
312 827
29 496
12 264
640 667
453 426
641 504
347 366
860 614
442 416
25 376
498 206
335 95
122 223
111 178
804 502
533 528
644 501
294 847
133 701
797 710
199 196
376 19
596 643
142 390
804 69
736 718
864 312
94 40
426 783
62 35
610 150
320 101
396 227
232 135
657 535
159 35
107 825
200 357
648 786
473 721
738 432
39 878
405 111
785 141
26 93
391 76
448 654
853 57
638 642
338 448
389 548
218 386
2 160
807 734
353 425
740 259
481 135
797 558
559 563
122 557
818 62
158 551
797 292
748 451
803 485
491 487
861 252
240 400
220 337
369 188
77 248
726 63
627 257
634 310
860 495
142 483
321 641
659 546
707 457
240 495
198 188
834 377
618 722
12 648
227 251
563 771
138 223
630 81
583 213
714 715
877 440
142 92
865 272
585 223
684 377
298 389
478 285
443 301
534 837
824 780
89 546
697 181
880 696
865 734
577 194
278 20
82 515
853 672
729 63
819 807
839 70
234 710
273 734
565 87
275 709
427 254
521 418
26 830
633 14
462 277
482 546
836 98
88 747
588 832
694 693
788 592
328 857
753 785
439 176
98 457
299 200
797 618
455 529
230 31
820 542
775 813
469 35
732 245
14 812
492 575
568 584
607 216
681 529
355 753
443 210
46 200
326 381
567 37
599 425
114 88
635 394
333 314
596 30
762 258
819 130
656 352
400 276
255 308
162 252
168 325
723 606
272 90
409 93
525 578
196 371
70 348
509 212
842 710
826 195
2 513
114 314
688 472
82 134
814 608
657 77
252 231
453 509
771 453
240 289
580 652
793 427
522 171
271 674
625 827
174 595
689 821
157 84
639 240
638 433
434 849
346 584
681 464
595 374
650 247
588 699
884 776
589 683
28 601
38 91
285 176
624 849
110 235
401 840
856 575
551 227
756 597
186 511
130 346
706 363
465 65
525 432
342 368
747 567
866 390
509 792
864 452
828 305
424 731
42 22
443 796
334 488
279 569
139 202
568 178
786 153
588 13
857 150
165 871
82 527
311 686
169 380
557 443
852 618
800 592
429 178
408 831
474 813
608 72
164 33
720 231
573 219
79 603
850 13
782 136
165 483
618 113
302 510
676 196
880 619
700 872
516 429
40 382
313 320
722 540
643 37
488 229
658 191
881 626
552 558
536 435
717 791
438 279
268 283
648 439
614 710
227 23
669 85
691 123
837 504
174 456
767 300
824 35
532 476
275 515
38 45
746 543
792 513
594 296
479 501
48 716
472 521
585 480
329 259
340 51
291 214
107 615
864 57
213 811
722 59
850 4
762 866
465 34
48 22
211 578
267 289
512 202
206 116
236 125
58 821
789 103
883 116
408 788
812 661
135 675
463 365
50 843
537 68
175 537
339 639
218 659
224 514
163 97
862 380
366 600
93 671
522 245
634 11
339 30
392 39
241 127
764 493
584 390
823 616
14 727
756 842
309 696
183 804
721 584
720 805
745 268
813 120
530 192
319 318
502 49
391 621
50 219
794 405
658 465
724 542
330 878
883 204
598 197
244 744
630 659
740 866
814 674
32 673
285 342
658 620
715 676
310 365
253 835
24 718
242 280
651 67
482 705
788 594
810 572
286 796
322 589
358 621
405 292
74 545
40 593
313 8
665 287
271 667
392 409
463 283
249 112
841 323
413 207
210 9
824 508
578 363
643 234
348 576
827 76
32 795
26 92
260 570
173 700
858 46
393 638
11 59
304 15
506 650
625 485
362 320
262 93
20 827
631 735
39 52
14 314
650 350
338 652
173 152
504 78
618 550
620 378
819 346
583 461
443 700
623 202
633 41
111 572
55 323
562 626
684 548
539 228
557 253
744 412
598 321
377 67
148 127
16 236
567 292
869 798
754 182
187 718
719 665
387 384
408 326
706 53
137 323
360 20
306 208
467 374
113 844
860 670
539 872
638 696
523 275
688 743
247 281
48 753
466 672
801 771
788 803
588 432
172 577
60 828
719 832
388 686
401 882
558 326
355 872
541 833
263 805
433 409
198 155
412 97
631 857
114 449
666 50
61 113
155 858
10 75
377 529
29 360
218 632
335 694
771 853
830 59
284 676
207 264
617 721
374 166
528 78
512 579
178 62
489 102
624 82
163 229
61 214
40 35
332 366
831 562
262 828
321 400
447 293
304 61
692 254
13 464
289 847
73 811
697 237
492 415
436 412
13 695
739 614
739 61
151 748
743 541
616 773
599 210
504 192
219 612
419 505
168 278
26 291
854 830
742 766
249 717
269 125
417 92
492 752
717 365
534 673
757 227
222 167
197 668
558 118
63 203
85 527
339 316
358 488
536 62
260 613
733 607
498 573
114 730
352 177
44 594
688 128
466 508
230 365
49 247
568 459
559 657
695 88
875 83
165 405
554 575
648 558
576 27
395 560
668 433
586 671
597 763
432 734
583 550
468 449
426 600
586 569
551 68
759 212
244 605
593 470
151 602
776 732
778 288
687 494
726 234
443 706
397 811
252 357
4 749
769 504
874 780
239 503
648 780
629 758
78 356
241 455
445 234
618 172
249 12
725 685
818 141
566 820
783 637
823 730
599 531
316 716
170 323
816 199
725 403
780 597
449 152
558 626
12 769
569 529
768 175
625 618
163 695
789 267
593 513
632 111
794 642
408 121
134 500
154 613
763 177
656 218
383 803
767 212
237 532
111 592
664 170
220 851
169 410
596 858
386 270
173 578
118 536
782 868
414 265
95 539
596 593
496 512
460 337
855 695
884 501
410 7
691 759
552 708
658 359
665 689
758 301
631 81
407 171
173 356
673 603
158 342
716 292
221 653
275 86
618 96
849 262
349 270
335 559
279 123
243 19
322 560
88 435
259 881
92 459
729 97
311 444
866 181
170 19
732 171
869 216
465 319
373 478
766 415
346 306
713 420
806 140
534 1
274 574
684 841
459 582
243 309
425 698
100 807
11 561
157 285
33 524
158 206
188 51
326 289
181 546
475 838
39 121
702 395
298 632
460 868
710 57
580 342
601 564
467 397
376 542
31 414
108 867
399 81
717 246
884 823
849 371
647 192
189 104
118 324
762 343
690 472
622 197
565 2
40 874
363 189
471 52
260 773
39 696
704 196
174 15
320 419
506 242
448 514
837 234
768 545
107 263
327 533
526 259
110 709
824 158
276 181
117 572
482 395
48 316
526 379
428 610
831 545
815 269
824 582
449 255
237 371
646 721
850 491
831 607
596 251
373 851
587 832
147 783
322 860
197 80
557 497
271 692
520 74
211 427
667 647
559 358
541 823
66 35
127 259
622 84
415 62
145 507
751 816
256 2
719 108
296 718
206 337
524 556
728 783
31 531
177 512
106 698
749 762
289 497
273 351
679 132
475 807
204 351
23 677
258 835
6 493
473 420
53 378
836 159
748 438
345 796
695 831
776 685
400 102
737 246
95 647
602 641
775 545
354 72
252 444
138 499
105 124
155 291
13 486
363 727
185 223
436 41
113 601
313 725
820 186
226 877
768 664
651 51
446 539
194 455
31 198
215 80
271 274
71 378
103 259
567 579
221 265
330 461
168 480
184 529
287 202
707 587
246 228
817 803
801 745
770 288
604 864
15 228
271 851
240 376
22 640
538 530
758 67
845 774
579 418
227 537
232 578
140 717
327 33
589 570
515 427
221 608
440 68
133 532
832 112
795 356
473 508
82 521
356 248
180 326
68 564
622 808
625 196
109 811
666 459
40 846
19 882
611 57
332 65
632 146
466 128
670 485
648 309
563 186
432 866
87 489
399 683
241 502
845 317
518 365
389 791
373 434
291 722
693 270
474 479
677 452
224 360
509 178
237 461
745 323
88 53
498 110
852 606
388 766
446 299
860 413
163 418
838 34
187 231
533 875
537 104
226 314
167 40
153 713
585 401
779 592
852 122
174 689
590 306
765 210
287 258
30 821
36 202
523 228
436 706
383 197
863 79
583 7
879 868
62 81
863 381
622 646
191 706
875 373
305 90
620 714
417 608
877 287
140 862
734 440
368 300
221 198
168 494
362 171
355 611
742 646
3 334
84 689
395 610
540 816
210 381
694 619
146 698
626 423
754 240
756 870
480 447
851 199
45 734
523 655
194 174
320 365
860 7
877 683
237 705
823 517
535 592
94 224
810 177
758 711
595 730
692 744
797 540
285 331
175 412
306 678
382 734
463 59
383 8
742 747
243 193
688 82
797 720
489 830
319 843
468 663
506 334
603 878
397 120
92 445
457 469
437 855
684 729
884 382
631 226
851 56
500 583
266 846
456 421
468 774
106 1
381 783
89 756
239 303
404 667
754 284
295 20
650 101
163 385
229 325
232 439
862 176
737 437
766 52
881 484
659 273
589 549
401 84
863 593
275 24
556 306
521 272
613 431
817 273
778 87
229 470
856 278
675 689
9 235
180 558
786 65
326 851
365 97
203 778
700 196
149 826
258 540
492 841
157 735
598 751
658 509
432 791
452 560
490 88
163 114
509 791
311 90
556 80
223 212
375 677
406 385
793 408
563 62
327 671
195 595
100 791
739 759
404 223
60 28
361 64
83 485
525 198
449 357
466 701
361 523
82 561
338 580
143 233
653 795
359 257
368 627
159 227
574 647
333 224
779 843
154 120
834 317
339 60
237 248
639 562
89 690
768 366
328 299
600 488
383 240
275 731
241 84
168 649
83 611
617 497
563 150
692 453
585 133
434 469
436 846
291 177
148 848
187 698
521 251
465 844
580 819
183 115
618 272
708 623
858 291
179 347
452 27
89 839
695 436
607 310
147 825
406 11
303 696
771 634
486 805
676 381
397 385
222 114
399 24
384 154
772 83
242 706
347 138
246 591
410 677
708 507
340 189
33 232
793 603
380 257
240 436
536 694
611 90
831 800
170 668
669 496
158 796
797 230
708 10
411 154
156 732
516 330
604 382
443 263
583 848
490 58
294 415
224 114
4 283
379 275
480 529
135 254
173 71
230 759
675 582
486 150
702 748
696 427
128 840
367 812
702 12
632 403
280 360
559 56
571 346
599 554
600 636
755 500
531 753
879 863
715 726
103 343
590 859
347 775
884 711
609 403
795 350
817 205
209 508
583 573
363 678
880 465
66 601
628 716
294 3
94 111
792 535
95 306
595 509
170 647
754 539
671 816
304 290
414 299
435 185
787 57
625 694
771 403
76 459
130 595
99 497
413 250
463 175
689 356
186 216
157 134
431 603
584 579
624 37
859 475
836 433
660 664
295 493
332 377
170 364
410 524
121 45
653 60
33 710
766 80
288 255
552 243
533 145
244 20
195 357
434 677
277 528
154 85
249 286
157 248
305 604
693 603
343 555
804 15
625 139
697 518
590 696
683 96
684 114
99 361
230 91
750 866
753 228
221 369
367 205
77 674
172 480
746 560
357 487
838 480
328 62
458 654
628 489
395 200
791 58
613 507
387 272
868 258
653 107
429 149
47 282
748 808
88 480
825 30
201 385
455 378
662 374
3 192
36 484
207 501
596 65
815 234
11 765
28 693
602 168
268 351
641 611
694 135
660 275
285 121
130 664
133 282
229 499
520 581
5 125
830 813
392 569
28 804
503 208
858 404
527 363
716 487
239 821
37 562
468 7
719 42
758 704
543 248
339 310
123 485
89 53
864 704
772 619
260 598
848 497
223 70
558 810
154 497
652 283
502 27
776 245
819 314
804 529
665 144
419 479
699 586
794 196
324 312
735 67
702 15
780 439
137 727
158 56
621 192
717 849
127 267
540 363
337 731
404 465
137 182
563 251
408 346
140 280
697 462
348 731
532 112
406 447
121 87
193 418
600 798
361 576
345 830
777 804
551 730
716 672
861 478
693 546
665 678
520 682
832 716
227 607
798 305
545 678
425 348
729 884
162 463
109 265
474 333
333 705
741 196
619 185
852 441
812 219
29 200
748 736
123 728
785 423
769 78
347 102
238 838
388 97
578 419
172 318
300 779
262 188
800 873
177 80
585 83
215 594
715 397
291 472
113 40
240 296
538 123
225 759
389 390
809 86
673 637
798 98
749 91
128 811
753 675
609 422
679 703
370 777
597 320
43 665
238 143
669 826
249 329
581 515
762 369
17 616
416 832
454 136
401 299
266 538
426 6
519 390
95 137
65 431
850 274
653 177
820 647
164 460
17 76
819 219
384 446
73 306
781 452
868 192
803 245
542 257
625 459
268 380
748 622
414 270
605 606
270 68
880 67
863 702
438 559
242 561
792 452
539 18
757 6
99 18
355 681
483 508
191 55
689 341
622 340
379 648
782 788
566 522
878 264
533 504
174 560
6 754
631 80
664 839
304 841
753 403
321 528
305 382
500 521
418 650
642 855
849 377
819 859
44 464
279 411
428 380
429 10
802 740
1 265
677 606
344 606
328 355
368 266
367 121
482 286
138 57
164 590
12 660
416 112
549 506
559 842
163 582
807 273
836 519
294 428
495 878
241 671
512 139
99 27
227 46
7 841
504 681
355 530
565 879
396 110
107 670
64 738
712 709
241 299
759 866
423 153
650 47
339 729
837 245
414 19
163 676
434 41
384 695
276 80
405 377
649 499
271 396
482 211
7 623
202 308
48 612
34 139
712 459
508 540
676 721
382 616
143 522
222 241
370 166
316 545
348 97
815 457
615 476
631 173
11 306
466 44
388 774
807 270
240 784
370 620
298 810
595 592
852 578
419 786
565 872
489 74
715 250
346 62
769 806
256 671
702 435
782 847
578 741
544 573
597 813
620 130
582 841
624 816
14 575
399 823
464 774
238 243
613 603
794 35
557 517
655 591
169 649
85 713
230 50
413 194
474 126
549 283
537 323
194 581
477 272
757 652
867 696
669 433
7 814
532 110
387 54
286 853
445 225
125 841
237 356
830 878
507 693
241 340
363 783
151 405
744 381
295 98
21 355
581 27
546 47
486 780
764 256
767 33
683 197
660 671
855 15
865 706
633 362
367 877
408 39
706 607
818 760
618 749
748 684
331 223
624 252
698 136
203 730
664 792
515 661
613 283
550 371
209 400
100 564
321 254
638 493
657 207
514 189
515 278
861 18
858 641
883 454
518 363
60 138
371 282
473 192
483 395
747 574
113 177
430 492
397 839
90 235
753 759
827 616
845 73
828 135
480 418
743 841
597 846
321 469
526 595
397 792
344 222
82 859
805 716
826 278
590 295
490 69
442 425
226 448
778 405
547 29
340 773
36 201
60 776
664 799
293 35
663 420
495 91
596 460
740 809
525 804
176 137
177 672
426 866
580 612
57 378
417 205
204 132
766 859
780 35
388 67
318 132
319 30
762 832
360 204
766 440
624 583
89 695
434 535
103 244
254 545
185 30
274 9
242 418
79 788
10 851
462 121
134 746
376 325
618 332
63 175
655 444
414 508
380 143
423 853
492 30
798 608
640 853
406 865
116 689
213 716
10 297
873 455
547 463
162 590
299 659
696 178
769 759
183 572
437 123
703 90
724 256
567 725
748 561
434 114
658 607
163 71
551 22
378 125
114 257
811 493
850 832
507 464
427 17
102 72
453 441
747 133
106 7
877 537
680 316
818 18
92 86
828 783
150 871
446 158
411 104
768 757
823 809
640 610
260 245
697 810
221 60
111 742
107 251
226 636
777 884
614 70
83 71
107 281
266 166
819 379
219 572
491 520
766 132
718 623
294 699
61 89
797 868
207 807
456 200
217 84
534 148
806 8
496 318
442 157
776 320
94 481
680 58
451 11
67 744
588 102
748 4
89 206
161 745
779 57
471 321
608 265
396 531
700 487
777 503
369 657
406 565
209 210
227 527
691 297
504 317
183 708
310 623
87 145
474 669
221 586
702 797
777 682
186 39
262 882
524 337
21 171
51 576
512 254
109 789
220 243
789 83
73 353
884 215
865 143
595 796
134 445
466 79
772 81
779 881
657 171
103 547
417 164
471 489
328 841
755 751
718 90
719 72
621 281
317 377
299 56
561 813
707 282
618 278
769 640
730 217
586 831
787 449
757 800
719 564
529 519
711 718
466 292
374 878
578 543
605 844
880 512
309 874
73 721
566 266
184 865
466 126
387 795
184 706
728 297
709 265
547 588
824 658
256 458
643 448
845 772
21 363
648 42
541 549
267 443
658 306
411 558
785 781
381 356
143 581
239 122
817 233
387 548
61 785
794 629
54 682
375 74
570 378
626 672
500 492
415 325
804 546
589 581
292 16
590 283
658 709
232 623
427 718
191 515
49 143
640 2
817 513
833 219
477 136
540 619
757 25
850 591
73 54
137 8
121 147
674 308
482 829
210 228
514 695
331 216
71 517
40 733
836 763
835 245
170 64
318 882
337 561
880 202
103 180
359 270
108 815
397 727
3 351
782 520
404 706
118 293
338 442
157 286
266 437
766 522
54 213
396 747
161 807
36 579
551 395
563 469
187 291
353 706
854 866
653 461
865 85
315 289
108 410
398 313
335 713
553 246
590 269
442 351
156 670
384 599
631 597
281 270
482 97
801 10
838 716
858 77
342 106
584 91
590 534
845 822
496 459
296 760
387 12
823 458
210 601
122 200
377 440
657 587
505 678
252 323
553 522
355 448
476 847
19 601
846 303
258 300
494 821
536 166
815 398
309 627
156 25
835 795
359 457
549 734
152 615
808 600
588 705
754 163
2 809
495 761
242 47
369 701
812 359
722 814
451 463
239 502
671 81
748 660
626 535
473 321
860 682
720 206
132 799
782 618
25 310
122 132
843 800
302 273
554 637
105 511
735 69
717 762
277 733
756 196
64 25
559 294
835 316
69 832
317 873
749 297
490 189
776 612
625 686
322 628
168 100
831 791
690 779
261 351
279 144
367 690
182 628
66 878
752 776
749 773
787 174
593 385
609 581
314 709
101 667
279 716
376 484
157 15
782 119
752 871
163 847
326 745
438 866
314 225
298 554
560 201
26 96
107 816
102 832
406 203
582 574
35 703
137 265
533 10
534 136
826 433
633 261
43 370
117 487
100 353
444 422
376 521
88 734
593 150
470 674
714 843
417 89
780 37
40 150
206 152
281 199
544 337
447 795
50 115
481 836
56 705
94 542
205 731
648 602
167 425
794 271
25 573
391 623
743 701
836 713
781 152
231 1
466 778
158 654
623 544
26 261
365 496
873 505
314 703
577 136
641 689
226 387
82 380
836 600
361 805
268 156
803 846
880 455
73 583
3 408
864 763
593 467
242 259
722 761
187 87
477 844
322 235
261 508
876 19
180 253
630 843
775 245
4 504
336 569
280 214
599 41
321 510
637 645
505 503
160 97
342 857
226 78
128 853
353 574
242 485
210 868
743 338
860 262
176 97
599 419
180 617
879 297
880 761
221 697
312 651
41 51
777 761
860 491
9 685
740 508
304 368
737 509
108 576
492 858
271 190
241 9
183 40
739 476
386 769
167 377
17 296
65 81
763 862
12 144
142 450
586 842
348 723
421 265
167 462
850 771
808 823
815 418
104 556
819 410
462 814
436 619
492 632
548 101
454 90
735 299
704 415
9 178
502 106
200 674
33 20
406 712
198 371
219 727
787 818
177 459
94 623
440 18
3 876
404 120
61 468
262 703
618 76
410 649
729 71
413 246
547 543
507 202
446 604
550 568
384 447
4 351
550 190
867 644
74 560
648 290
401 546
43 281
252 177
380 716
763 711
326 102
759 487
771 503
184 571
249 605
149 413
575 474
226 330
100 493
617 29
585 469
486 792
362 282
848 469
311 327
370 458
336 881
499 18
391 803
601 228
289 848
288 728
588 281
589 485
537 58
370 656
496 603
534 296
246 701
579 573
676 759
748 156
361 166
162 644
855 409
725 827
183 627
40 227
41 513
794 65
881 821
209 106
151 689
585 521
641 501
344 292
434 47
82 806
203 532
347 683
556 459
605 9
626 283
597 263
473 120
727 530
672 796
366 177
509 535
788 662
436 483
535 561
664 81
521 821
730 202
31 294
155 582
338 282
874 504
857 416
875 65
165 745
576 647
324 611
473 431
382 211
823 592
165 695
473 233
191 423
188 677
118 42
673 118
105 1
359 314
619 299
676 5
317 570
840 701
144 510
804 23
755 430
97 783
633 721
188 418
631 846
869 666
118 616
410 337
157 195
875 280
451 359
143 747
417 126
774 283
94 806
641 219
354 659
478 864
446 483
209 583
230 700
638 194
304 409
641 324
308 192
588 69
664 777
585 290
105 645
596 5
541 644
772 432
301 874
305 529
656 263
276 317
436 44
346 539
249 388
368 437
277 667
868 420
261 433
108 636
263 761
638 491
38 299
430 737
742 493
844 701
862 804
739 794
615 9
869 862
448 86
412 68
343 799
387 564
60 670
836 831
42 652
481 623
99 8
664 129
686 641
252 132
74 216
269 350
324 706
416 280
53 455
77 84
220 531
406 194
789 852
11 509
709 299
88 283
235 841
711 837
511 593
4 855
443 644
453 477
467 266
657 273
752 519
659 213
860 722
93 476
369 235
414 234
464 56
826 494
299 223
523 514
103 242
295 229
162 855
471 437
733 514
536 450
428 202
205 350
848 718
613 252
481 43
691 798
206 496
396 20
823 74
18 546
383 388
737 269
60 444
388 721
753 385
163 452
555 326
430 282
431 199
481 619
36 306
843 760
151 121
132 734
777 519
98 647
870 873
762 366
798 175
48 522
782 357
462 764
662 324
361 777
152 133
589 282
849 546
314 264
347 816
337 470
121 463
138 535
394 160
123 610
531 20
252 838
406 100
75 432
702 653
666 302
721 390
868 371
172 416
688 713
717 508
836 847
413 501
107 637
91 199
368 800
241 214
195 143
279 781
161 611
198 644
823 261
879 344
868 362
276 584
291 546
25 418
863 238
303 573
266 290
715 462
678 214
628 207
404 868
71 86
262 80
559 177
222 651
304 144
450 144
127 774
111 168
713 591
534 58
679 760
313 89
593 586
775 836
26 136
615 133
339 67
590 217
361 543
453 698
126 281
127 405
198 493
356 214
441 330
103 628
129 219
25 766
83 531
653 675
506 800
31 814
107 444
550 766
534 211
37 409
241 88
258 470
702 319
298 724
298 33
651 751
84 672
819 52
478 377
823 278
108 648
108 85
71 686
353 843
117 67
610 316
367 601
861 730
615 614
857 602
467 636
375 418
725 365
415 795
833 531
163 531
554 159
493 851
708 58
442 464
42 189
468 383
826 783
415 581
415 487
473 356
471 305
221 738
609 493
738 587
600 722
815 22
372 810
410 229
268 881
824 225
876 368
566 875
614 455
255 318
794 15
64 352
335 536
161 259
394 202
251 24
604 215
787 36
474 444
612 55
243 377
515 654
134 589
815 433
472 661
179 766
515 376
156 389
424 792
632 391
726 84
227 96
502 58
581 562
654 280
34 791
769 229
787 770
571 49
60 320
6 780
428 695
339 62
233 455
207 191
860 757
694 228
256 436
316 636
614 447
820 270
232 649
159 120
260 235
509 814
148 399
285 345
685 160
227 24
226 625
762 501
66 627
89 116
801 652
749 131
715 322
509 671
516 7
424 340
332 325
406 708
82 6
706 515
467 470
486 364
144 595
471 152
464 851
666 692
739 591
697 854
868 540
107 457
79 471
834 841
541 883
726 347
447 403
639 549
819 772
824 207
661 41
661 484
541 651
663 448
333 104
706 200
330 91
673 62
858 844
640 252
876 501
163 98
36 452
771 428
862 672
721 572
313 510
666 87
221 682
460 711
869 877
468 529
275 535
64 112
450 864
568 67
185 844
401 172
720 313
242 616
477 463
152 348
275 371
61 598
287 497
639 232
875 478
401 318
642 667
547 13
496 125
96 722
6 693
80 636
117 222
840 1
651 698
193 179
105 49
585 804
433 55
289 810
108 42
770 549
861 47
94 536
446 149
524 257
519 52
371 351
119 560
7 687
856 551
875 328
697 742
632 647
804 708
607 145
170 22
494 76
38 853
870 150
283 351
600 779
46 774
341 18
794 461
326 616
692 93
239 333
746 627
828 766
773 592
23 145
45 132
176 228
836 366
50 209
394 786
658 455
290 237
436 124
401 54
239 519
829 297
669 482
369 640
203 711
105 58
305 424
291 515
38 678
368 745
541 720
646 362
795 147
249 509
339 783
856 99
180 492
565 74
327 283
675 371
699 873
714 300
399 423
99 549
171 464
335 507
155 314
69 365
128 783
340 419
29 417
839 827
472 283
382 270
130 628
822 562
476 701
759 718
226 278
580 374
275 7
49 250
231 11
488 507
227 581
567 24
439 608
184 457
863 11
331 170
187 377
642 313
230 356
617 322
466 408
209 567
32 690
622 173
159 431
881 469
112 91
537 667
877 687
793 769
724 171
596 261
262 460
816 51
249 150
393 281
736 640
400 837
298 177
517 208
665 714
833 720
479 69
550 400
318 264
600 111
304 540
338 77
329 482
826 440
489 107
788 838
398 213
184 353
754 712
168 560
575 319
705 308
361 241
63 92
218 684
563 753
417 641
677 363
680 773
164 434
6 22
242 740
99 223
192 272
764 46
692 872
565 486
88 706
828 421
406 147
408 424
482 745
474 127
15 704
270 120
163 30
183 660
700 290
77 7
277 10
152 219
524 752
873 357
429 319
105 326
656 594
673 264
696 20
817 730
272 390
861 476
25 686
149 661
206 708
617 872
340 840
374 47
742 233
232 672
268 760
730 319
269 145
452 247
36 620
73 766
776 870
735 168
23 358
532 175
355 302
765 145
50 845
65 75
513 214
750 112
288 216
60 854
864 281
274 696
55 790
639 489
24 5
742 286
335 715
781 135
433 854
712 146
182 700
218 877
607 576
568 709
349 827
443 832
759 403
172 463
279 613
197 528
12 685
622 356
680 608
91 236
309 93
168 233
756 746
577 232
209 115
335 71
393 671
526 163
49 237
748 791
512 8
354 517
715 166
870 360
241 581
665 491
131 780
244 726
260 851
379 135
707 521
784 34
468 459
622 70
876 773
78 493
241 470
590 480
630 733
657 3
151 27
724 772
382 494
232 730
376 543
584 68
655 44
749 193
289 493
364 865
596 343
536 487
310 790
84 8
625 46
634 476
429 510
748 68
253 610
848 472
639 348
207 602
635 644
173 662
651 839
157 18
12 494
400 799
566 639
398 658
882 59
36 455
363 51
864 53
692 76
643 253
186 498
547 685
387 508
550 111
860 710
755 574
572 293
802 94
117 506
154 372
797 211
781 750
107 124
253 650
540 602
808 295
789 772
276 380
131 92
620 317
831 706
782 168
730 153
130 181
289 34
627 476
108 27
166 582
226 264
662 137
692 352
583 80
187 450
832 296
387 644
315 867
134 485
779 77
502 803
481 668
452 371
555 224
514 840
4 785
113 395
829 650
884 286
557 208
478 726
779 832
528 576
211 358
305 646
729 159
680 336
176 412
349 144
426 680
116 567
764 172
248 509
673 761
673 286
159 517
200 458
328 543
123 323
438 19
850 486
405 202
851 374
10 314
339 736
104 102
633 695
815 745
71 233
471 644
36 490
859 713
633 708
831 425
262 673
854 538
413 661
675 181
416 710
471 773
720 47
369 215
314 263
598 813
541 15
872 293
262 560
871 98
122 434
88 649
735 283
401 251
193 498
843 811
716 59
387 639
4 232
602 175
782 751
507 830
398 334
509 46
399 51
94 368
662 701
2 76
585 788
233 655
624 254
753 320
879 341
679 88
310 208
699 614
525 69
497 2
316 308
464 341
372 838
748 210
631 570
820 210
91 35
382 45
754 106
525 409
863 235
60 607
739 473
743 76
856 742
451 769
172 69
749 752
736 689
238 417
197 623
627 30
683 654
260 597
806 855
815 334
410 102
801 117
581 390
582 357
838 46
414 844
397 123
163 185
787 668
321 476
584 654
417 332
700 672
712 451
726 293
429 219
585 530
130 207
577 86
513 147
12 391
588 318
383 217
443 308
574 178
149 268
443 502
706 282
446 460
191 710
430 394
730 91
213 693
472 839
151 248
863 208
495 799
676 710
593 542
274 687
335 838
482 662
118 732
802 633
30 542
769 299
74 35
94 365
868 310
404 205
477 401
256 548
746 625
83 432
881 407
587 476
398 344
164 48
446 220
275 15
361 352
748 212
190 723
48 110
103 61
748 775
327 145
215 242
804 480
805 510
164 458
238 337
858 582
354 850
408 497
754 550
100 548
817 318
855 777
431 188
732 834
17 24
127 205
471 512
628 275
239 105
424 721
149 337
481 512
328 484
3 208
597 93
846 306
344 151
788 707
109 579
187 281
848 701
777 444
191 91
486 376
35 774
285 250
631 777
405 307
595 168
151 275
799 840
780 814
656 159
451 557
620 685
161 560
471 680
28 47
717 144
664 826
386 855
557 615
562 851
444 827
164 97
216 427
683 730
342 191
255 586
255 385
826 207
824 201
438 281
91 458
24 125
336 447
163 495
797 350
64 846
780 524
103 679
397 880
95 623
253 278
571 519
420 57
169 721
442 465
794 295
151 443
100 447
64 520
401 247
673 193
379 701
875 720
769 227
492 577
734 192
844 507
714 440
95 179
385 283
758 218
82 420
541 864
565 521
32 235
547 585
586 532
789 422
359 65
242 235
562 842
410 718
729 190
251 27
566 109
152 318
142 275
769 814
822 57
502 784
42 87
23 455
182 738
155 132
502 197
401 784
604 652
20 199
163 539
662 693
630 436
666 660
557 462
134 136
558 652
648 543
749 422
547 737
640 626
146 314
112 827
149 735
558 704
577 839
720 236
488 645
782 637
490 610
73 582
828 5
532 567
479 5
517 293
847 546
461 750
190 457
554 826
117 177
290 556
797 373
757 742
31 112
676 124
182 711
481 310
590 693
185 207
424 881
331 818
760 160
388 33
530 213
482 881
430 838
411 311
105 352
250 718
329 591
435 880
554 112
330 173
370 443
297 444
244 480
284 759
285 237
638 677
566 134
142 195
109 884
109 703
240 690
77 256
152 233
649 237
868 696
764 466
508 713
488 192
417 219
756 439
679 114
722 644
590 443
242 848
21 591
65 713
164 843
121 258
230 428
674 421
468 100
255 124
622 8
159 778
316 809
361 371
828 369
367 631
243 701
63 516
657 16
586 592
411 268
837 493
151 504
170 412
15 203
642 205
547 233
419 659
403 246
690 810
702 51
206 52
43 754
869 407
429 725
66 762
106 831
270 293
52 844
218 628
455 385
517 390
222 404
331 706
406 794
438 18
685 517
744 223
594 67
618 568
585 656
241 115
877 360
262 652
493 20
864 744
4 801
29 549
91 464
636 68
838 349
197 166
126 20
492 332
555 483
556 56
442 191
244 71
282 574
355 92
393 383
343 85
345 483
552 346
681 423
385 85
223 390
629 655
831 520
354 156
690 175
845 474
47 286
621 751
860 703
650 582
379 883
660 522
312 760
665 14
684 478
61 600
488 805
7 75
262 721
568 228
339 212
364 55
431 698
216 84
249 365
633 12
494 286
187 24
50 514
850 197
566 824
637 75
105 755
468 106
345 635
518 37
643 326
19 608
495 659
422 721
505 545
499 395
372 187
45 107
718 464
310 281
729 766
70 125
821 731
585 190
267 213
4 753
425 23
597 201
737 188
817 852
547 669
509 420
201 115
825 470
755 350
846 470
596 407
649 731
297 587
749 145
869 706
782 478
802 821
184 648
665 384
424 104
189 269
597 496
118 70
193 864
603 348
179 267
694 53
803 837
18 247
717 492
95 552
518 296
21 435
261 326
652 391
11 521
683 92
450 129
342 403
805 340
180 300
488 166
848 825
518 780
460 439
560 440
733 537
502 30
176 433
747 487
548 284
729 452
39 403
238 211
666 406
222 513
339 687
689 306
451 848
323 124
303 519
287 729
625 717
882 469
511 480
250 573
573 784
541 81
523 490
262 683
319 200
504 402
105 180
195 653
439 512
244 259
273 811
400 701
684 856
39 851
652 881
45 93
690 274
563 544
433 685
195 538
862 655
824 405
518 81
863 491
488 208
187 244
228 659
304 40
801 494
231 711
128 198
683 161
882 723
289 308
4 195
298 538
661 853
7 637
672 125
764 38
712 591
657 306
109 407
608 213
664 167
183 401
84 501
386 328
423 390
100 273
686 504
586 206
563 197
801 133
414 466
490 731
531 419
553 612
589 211
238 387
438 156
205 884
295 573
884 433
310 225
316 51
42 778
288 681
505 561
159 553
53 54
358 47
165 818
495 543
662 710
672 178
399 820
872 531
598 135
197 296
863 775
655 452
404 745
180 431
770 622
254 760
130 58
859 480
231 792
248 530
843 807
671 196
32 787
214 90
252 265
716 47
666 572
845 646
627 751
366 257
131 201
544 546
133 219
663 525
218 208
335 868
355 423
467 682
244 544
802 603
162 817
42 804
325 365
644 316
806 396
630 589
417 37
467 532
209 128
639 721
643 530
190 650
610 34
41 402
867 465
243 788
724 479
220 558
70 517
680 224
622 223
508 350
491 510
401 455
735 496
420 463
367 21
518 575
777 188
664 858
476 645
367 740
138 85
673 115
391 606
644 603
547 518
632 10
181 337
459 166
442 242
188 421
82 173
602 81
157 669
212 35
478 188
161 141
658 197
551 830
290 491
808 234
755 686
835 27
797 865
60 546
169 272
242 816
299 718
218 660
302 20
676 289
344 778
215 659
559 871
593 306
592 139
259 364
794 180
834 200
148 200
198 841
747 790
388 804
399 811
660 572
440 34
151 524
64 307
501 178
540 519
674 378
86 35
858 56
677 567
770 92
820 842
383 772
577 27
151 40
804 537
444 579
232 713
64 229
487 671
742 374
835 197
343 392
635 512
275 360
29 604
474 337
782 254
508 816
252 765
109 345
110 381
551 333
700 521
493 773
514 84
850 48
172 68
410 132
653 72
486 598
105 434
271 257
736 861
860 550
676 870
630 377
425 315
812 705
339 421
432 282
627 485
529 374
159 495
460 484
329 362
664 718
274 669
865 83
850 615
721 377
443 766
26 266
135 732
794 434
728 725
758 710
657 100
347 418
415 380
289 501
399 726
806 178
37 138
632 791
519 705
646 152
336 542
426 237
373 695
447 90
109 223
801 837
414 497
514 785
426 441
589 72
726 444
240 855
629 780
398 358
8 645
782 497
394 811
176 838
733 435
735 709
60 278
221 795
322 804
61 502
64 262
802 524
641 452
621 147
198 236
353 685
509 783
717 298
679 631
414 823
42 738
6 73
462 202
707 236
335 695
636 139
255 641
140 301
324 116
434 389
288 420
250 531
18 196
50 36
714 503
354 236
210 681
210 872
720 261
506 19
793 721
328 121
879 155
883 233
4 6
260 339
794 378
23 668
634 448
467 420
31 369
417 293
471 110
7 645
517 698
827 574
189 9
442 295
558 201
692 560
797 5
690 522
820 218
361 128
586 190
207 752
312 444
239 436
94 20
591 821
758 47
300 659
688 636
736 480
413 66
88 623
448 603
325 315
643 560
642 691
534 618
677 124
131 526
862 352
244 397
601 747
375 205
173 81
875 158
692 632
798 677
110 562
879 862
755 366
366 520
481 805
423 709
444 257
372 806
656 153
620 234
505 840
159 309
339 187
438 803
130 16
860 292
596 470
583 483
304 766
525 580
378 278
621 133
625 865
715 448
864 459
239 445
627 780
442 612
3 870
153 34
228 674
670 423
229 605
801 767
605 433
768 443
236 308
92 81
169 751
533 684
798 110
426 434
249 396
211 709
352 814
801 872
822 487
588 107
861 259
658 531
593 112
554 98
243 395
81 292
154 114
84 314
193 536
394 126
241 407
217 868
222 268
381 553
780 272
183 424
186 757
25 455
772 854
317 257
9 80
417 245
673 41
106 545
87 76
606 807
845 597
330 482
369 242
298 362
388 60
677 830
817 842
140 871
164 208
256 710
629 682
464 199
542 606
670 569
833 796
380 152
751 123
412 316
628 57
613 427
26 599
689 395
391 376
347 826
857 396
506 738
803 415
72 403
400 256
474 267
737 553
865 7
423 829
137 774
565 697
506 774
577 268
658 246
420 517
755 410
594 846
350 407
120 57
335 651
655 18
304 224
468 777
503 687
127 723
162 239
533 785
220 492
789 818
646 528
313 540
684 168
334 28
651 362
122 246
144 703
140 309
109 833
749 612
331 128
843 584
700 740
277 8
598 198
283 616
339 284
461 795
757 528
588 291
250 276
731 592
630 738
67 385
512 306
142 621
307 472
737 70
422 685
208 814
173 511
228 178
164 527
433 655
468 205
822 165
713 608
588 718
186 183
115 199
665 824
353 718
762 725
48 705
393 477
286 561
651 785
434 307
860 59
658 872
387 382
167 121
588 407
48 298
227 504
797 113
146 766
819 774
452 293
40 704
700 681
185 281
138 374
739 405
633 642
61 97
559 844
689 835
644 811
655 521
782 449
812 784
383 74
394 41
810 773
226 870
557 738
707 611
779 229
266 716
251 153
287 368
126 424
489 796
634 796
243 562
302 840
13 155
803 46
577 380
580 258
535 9
543 800
417 800
749 11
346 440
456 259
36 476
735 200
332 635
793 255
78 115
633 69
408 27
202 682
815 224
206 385
193 740
45 53
578 390
38 363
676 652
570 395
347 30
534 294
311 12
259 615
849 176
189 847
243 532
63 703
119 687
618 584
116 52
803 854
340 90
733 601
183 651
348 55
193 199
186 259
683 579
346 412
871 286
691 665
836 473
693 645
386 632
533 355
865 670
149 632
114 682
372 258
741 68
245 495
230 808
429 152
673 389
675 704
748 506
398 263
148 253
738 160
757 68
99 284
651 693
221 545
391 811
620 375
707 165
31 320
860 184
453 766
609 308
772 220
758 765
315 78
462 147
462 302
131 117
195 75
731 141
490 751
716 93
753 803
661 708
739 272
795 2
501 839
634 723
311 262
780 227
596 790
105 346
743 484
658 429
307 233
550 296
642 521
543 219
186 64
397 227
795 844
831 207
39 791
453 52
521 292
802 451
794 473
397 424
387 123
237 297
681 312
441 809
133 35
299 80
635 506
690 579
468 598
285 723
168 10
271 181
184 5
239 639
790 101
222 22
404 477
26 872
207 358
448 800
320 581
335 711
309 553
183 400
513 75
750 626
182 270
241 434
169 685
351 8
148 732
615 698
64 756
446 195
787 261
881 738
663 818
738 524
679 308
498 178
775 348
389 33
205 871
215 473
118 455
563 587
145 579
341 403
145 136
553 283
400 613
609 281
670 145
759 19
772 612
79 515
170 749
250 842
337 62
157 768
339 229
385 17
307 396
570 420
380 150
497 507
262 582
820 658
183 127
500 525
598 793
638 346
830 160
416 111
309 630
406 186
220 87
838 646
41 278
207 654
794 482
795 16
503 796
745 400
194 867
214 701
356 75
796 545
733 292
255 661
271 336
833 304
58 409
224 348
833 600
726 269
211 816
359 699
468 351
89 435
434 795
291 683
74 242
148 605
184 782
413 513
151 736
595 867
522 513
338 626
154 17
858 499
347 701
491 400
736 342
255 709
865 54
335 158
157 650
449 113
638 349
68 816
508 47
515 873
182 231
439 799
538 394
224 41
490 219
687 47
67 878

975 4003
896 437
59 274
813 645
427 797
942 475
507 94
258 152
241 635
936 549
352 503
6 654
61 465
264 963
973 959
216 88
711 44
490 39
143 512
510 541
536 740
880 93
494 441
902 409
66 527
199 162
259 729
519 160
524 736
28 10
211 282
328 124
782 167
69 470
532 93
164 602
1 40
202 635
701 301
895 640
226 911
80 517
910 11
889 922
785 680
695 165
441 146
909 874
80 3
388 196
851 441
320 231
217 353
735 931
646 335
867 251
278 853
923 61
800 556
53 366
429 407
430 479
141 942
68 337
898 747
721 415
633 794
526 768
871 650
485 347
32 521
783 590
125 843
202 610
629 462
623 323
829 468
708 383
655 798
233 643
70 799
89 125
71 569
697 890
366 876
259 508
149 184
408 407
916 585
106 707
711 471
505 796
811 763
329 813
940 464
314 961
666 26
419 31
726 240
122 425
587 225
679 138
203 85
439 219
701 875
888 21
907 173
247 132
472 633
912 747
533 7
164 191
750 304
181 384
715 261
275 549
169 214
189 917
844 374
483 383
449 307
268 43
731 389
470 107
42 418
741 297
577 792
247 131
945 860
857 479
554 124
873 945
400 189
288 635
187 647
352 11
833 787
393 28
745 484
213 689
143 376
747 146
234 99
549 93
627 626
4 572
719 24
847 215
633 804
226 338
527 338
429 644
758 457
414 502
660 490
842 501
471 853
827 964
238 576
926 904
425 101
466 545
246 479
28 134
105 103
20 429
823 304
378 24
59 175
774 289
499 292
262 85
82 922
102 195
528 502
105 454
432 693
514 588
786 489
946 167
553 498
455 139
486 11
829 666
68 600
117 920
781 162
272 776
95 396
354 237
195 905
651 788
309 632
302 629
911 805
806 624
18 545
627 437
294 292
133 543
244 889
319 292
106 685
106 870
382 566
826 389
486 94
495 936
442 292
597 207
409 482
249 227
248 639
547 347
801 959
785 466
970 862
256 21
644 282
213 914
784 92
427 645
907 278
912 833
141 135
180 775
752 384
751 7
681 530
665 744
556 572
595 619
294 600
618 773
158 51
51 188
306 140
630 879
962 173
690 102
873 798
886 517
140 11
909 659
108 637
714 96
571 489
946 917
51 403
380 376
128 61
686 10
430 517
257 559
98 451
70 740
782 855
143 542
88 706
642 592
130 925
771 921
811 740
937 11
221 266
393 579
391 519
106 402
291 658
878 879
679 319
718 767
176 743
636 888
506 149
915 97
1 460
76 896
864 718
370 482
79 63
688 87
134 446
946 317
657 611
605 195
809 696
75 793
330 483
4 299
630 411
245 439
965 880
17 613
514 456
627 27
191 175
782 835
758 530
652 817
212 851
488 966
363 793
751 122
660 64
293 73
575 853
647 128
285 737
524 333
213 892
506 739
676 219
452 304
721 889
249 855
598 319
283 515
234 63
144 774
71 341
585 96
16 733
662 902
228 593
496 811
781 571
194 503
338 336
141 103
389 632
181 747
627 480
573 100
849 110
813 693
908 642
727 478
17 924
39 179
860 61
473 805
755 785
332 582
594 113
371 591
157 802
303 41
323 464
380 858
312 31
344 546
22 899
612 426
794 21
723 169
814 517
790 276
891 824
412 10
910 313
142 626
736 300
699 839
350 186
573 866
758 8
709 732
104 336
412 441
70 581
145 357
774 755
358 346
610 115
509 103
940 314
284 310
692 605
715 724
116 955
844 491
668 362
24 438
651 461
946 46
821 565
571 846
473 863
392 796
440 219
258 446
369 606
885 520
45 894
618 501
854 498
359 944
487 337
68 361
628 900
938 508
20 36
906 242
728 647
432 905
783 542
380 508
156 947
626 452
149 41
544 522
906 225
945 503
786 587
473 746
531 232
366 497
306 307
972 468
809 182
130 854
688 475
239 39
59 222
204 528
388 130
834 517
506 162
122 972
965 30
513 242
699 853
496 137
169 111
723 36
652 838
211 197
428 453
322 269
141 146
418 367
294 282
259 219
617 205
946 941
617 963
102 519
268 718
933 689
453 620
934 159
537 89
370 314
432 601
9 702
653 765
512 361
806 272
534 245
333 674
671 114
359 243
599 796
78 115
70 543
948 446
533 963
474 415
164 80
954 933
490 110
630 615
739 307
650 442
640 251
945 91
690 939
591 286
656 615
320 362
289 437
719 354
831 563
650 13
192 824
300 57
283 147
712 905
178 400
510 590
844 64
956 698
922 582
150 896
378 571
100 489
785 860
110 798
699 335
789 124
408 879
886 46
749 199
104 317
583 10
252 160
556 858
808 240
458 508
352 193
49 103
68 850
803 74
315 525
97 632
400 727
945 870
55 628
22 306
207 135
781 116
730 307
18 458
453 937
24 704
884 150
209 445
194 606
618 531
30 232
965 120
972 295
898 35
536 802
718 21
223 729
522 861
27 425
262 15
597 621
564 699
794 36
395 592
512 278
434 493
289 931
640 885
568 759
937 783
427 662
946 967
946 93
305 803
712 253
562 414
200 870
204 854
480 380
333 950
562 576
245 564
339 435
412 267
857 767
180 629
105 6
666 415
940 530
44 479
119 608
561 601
339 694
250 103
657 304
507 636
446 882
955 801
210 463
746 848
176 323
12 729
235 579
783 897
825 858
533 393
699 458
129 851
386 579
273 589
610 579
614 541
798 402
319 543
340 443
949 526
145 859
60 587
441 287
97 218
867 23
648 492
762 220
855 558
269 135
836 569
39 541
98 785
427 368
177 243
824 542
164 869
369 33
773 664
212 638
388 109
303 309
176 821
450 802
445 114
180 207
439 253
419 155
630 579
60 82
209 134
120 114
102 587
432 30
654 665
312 814
832 735
748 777
470 917
701 134
148 620
555 878
866 777
444 796
673 974
795 718
933 141
16 182
626 614
18 787
934 376
576 862
960 963
379 791
750 703
615 737
455 44
256 750
847 862
924 616
873 349
753 408
907 769
213 10
359 31
548 632
571 936
254 665
720 269
167 759
369 772
336 876
650 40
748 759
473 870
213 20
112 439
168 702
847 109
116 713
300 862
27 702
249 207
250 112
801 939
235 307
654 172
436 208
475 951
97 771
222 591
784 892
360 469
89 265
457 395
203 84
242 604
208 153
685 681
524 663
509 219
709 834
378 210
178 471
714 229
751 429
914 483
921 850
901 337
760 411
364 624
373 861
45 208
220 772
750 623
524 490
224 232
573 730
523 839
830 85
305 508
970 552
71 710
70 134
516 593
227 236
868 685
134 11
634 229
628 380
834 483
377 705
216 321
179 737
473 86
920 98
847 214
316 932
262 296
524 440
781 622
194 264
676 337
895 175
462 346
20 778
75 602
919 821
847 264
152 130
371 54
500 306
136 401
304 883
512 893
729 489
583 258
397 502
436 762
950 697
679 85
259 274
496 580
595 464
171 194
523 425
174 792
196 269
106 344
343 21
256 31
535 289
405 903
778 188
138 616
488 24
206 924
972 135
40 810
905 669
122 894
42 712
952 374
858 674
974 541
297 928
816 805
430 286
824 763
641 475
971 387
807 466
871 343
867 601
497 56
354 854
142 195
375 972
84 850
692 495
786 788
716 520
95 860
458 126
499 614
634 247
927 399
651 289
290 734
662 232
756 869
761 232
392 325
16 307
66 209
250 367
170 310
552 855
183 316
701 329
350 137
581 171
684 63
781 497
255 394
73 127
716 381
58 653
699 649
496 626
116 880
210 631
799 444
359 911
12 928
934 800
699 742
957 789
248 429
121 326
784 825
450 792
112 236
187 855
277 404
647 911
641 894
817 928
363 803
783 682
731 675
844 511
556 36
611 476
521 273
243 86
962 165
121 566
622 139
159 651
606 922
130 700
935 218
297 149
200 188
816 674
903 967
54 11
362 14
861 909
480 646
97 491
833 766
662 897
83 373
925 956
766 538
912 261
948 579
677 11
666 835
149 456
8 724
616 659
790 370
690 723
376 706
657 471
677 822
769 224
273 462
735 223
226 624
202 358
887 432
212 376
965 913
469 279
808 415
262 635
475 950
601 563
824 772
830 396
68 294
382 955
327 419
856 768
83 243
186 929
78 318
686 132
418 198
730 162
126 113
589 146
536 919
258 130
629 838
259 231
597 306
138 265
49 271
377 138
811 411
386 321
234 683
553 308
254 686
419 887
739 586
705 452
634 482
351 93
514 226
436 18
95 913
59 195
155 698
462 810
690 483
620 411
451 137
20 734
481 930
352 493
317 845
898 755
851 620
783 165
144 338
878 349
627 607
901 287
868 275
27 277
447 883
655 415
17 916
641 399
552 766
537 539
954 747
684 491
61 579
423 860
562 565
651 697
102 271
527 284
455 207
39 307
59 216
456 404
535 689
635 748
133 125
923 483
728 793
214 489
860 347
537 962
169 696
518 911
95 238
397 282
562 924
281 925
926 641
790 447
692 950
14 101
369 261
474 61
592 189
422 864
884 448
104 18
946 9
213 203
89 85
570 652
117 85
168 153
374 435
207 950
206 543
428 690
818 207
692 290
413 788
533 3
77 135
150 136
300 720
186 321
393 856
28 812
16 295
531 931
753 808
59 78
902 75
901 18
327 625
673 420
378 162
507 689
400 21
971 187
442 839
971 925
522 643
122 344
430 586
752 298
381 40
73 770
292 146
239 190
974 7
334 888
423 850
171 253
192 849
835 146
213 266
506 260
893 265
201 645
662 959
554 732
773 232
386 236
833 802
81 197
562 694
731 370
824 556
418 843
187 784
921 557
478 671
447 793
449 682
525 930
305 816
269 608
349 93
254 635
828 697
459 555
117 59
427 255
925 735
891 556
425 930
881 131
807 80
921 788
44 925
283 630
40 402
177 658
859 858
381 146
53 693
534 310
725 284
378 787
962 916
428 882
927 438
675 297
180 646
90 369
385 767
701 198
481 511
707 175
965 144
34 274
142 51
27 700
893 883
720 290
240 146
151 803
958 433
281 379
523 724
249 321
102 566
291 92
248 952
71 8
755 296
334 842
39 882
499 179
190 85
194 8
768 786
692 404
206 746
756 902
81 620
388 120
100 277
247 13
142 598
17 229
570 21
642 614
76 801
668 746
832 851
410 489
655 75
677 399
625 86
770 812
857 37
176 869
904 698
373 888
266 607
380 798
590 859
952 881
716 250
417 179
371 568
605 153
109 404
382 50
95 833
610 951
632 659
652 545
634 820
636 107
233 290
416 435
472 325
163 11
312 260
185 250
139 808
519 734
296 616
667 36
263 28
637 665
581 636
782 162
379 316
548 587
261 437
861 465
748 876
421 645
522 465
120 876
719 336
730 286
251 301
52 253
605 353
51 681
551 304
187 517
830 292
90 1
906 284
488 729
621 353
90 475
705 76
627 189
148 469
311 107
884 863
295 237
535 718
223 31
534 680
676 99
187 548
518 869
315 477
649 538
45 641
320 475
339 617
254 876
568 678
73 200
696 12
537 396
775 563
409 206
887 527
943 777
927 542
839 936
695 530
328 612
799 725
668 414
599 843
249 888
830 803
202 245
148 476
559 147
925 410
708 542
507 183
553 46
497 501
430 706
199 321
519 155
178 498
466 154
29 502
164 348
510 206
111 836
332 252
498 267
230 5
13 802
111 707
364 685
753 925
187 661
206 545
407 46
617 299
374 616
686 705
710 918
704 659
203 198
223 572
494 892
119 944
70 516
590 571
715 764
568 952
605 21
145 404
475 368
711 572
115 674
157 608
797 931
743 704
247 134
800 424
486 336
143 140
201 909
626 269
17 411
918 504
316 720
695 184
215 430
675 40
141 305
456 36
933 296
455 913
350 36
133 700
228 395
661 878
32 827
311 395
836 600
211 322
472 616
914 754
571 162
455 29
369 848
956 504
53 3
173 876
820 292
399 917
914 475
308 894
216 277
795 451
48 457
117 703
867 924
905 337
211 109
221 530
178 789
834 186
490 476
575 7
280 476
83 39
637 415
359 295
50 689
587 765
786 487
898 579
628 198
244 933
651 498
688 909
618 316
159 167
951 404
968 771
625 873
19 669
53 921
849 445
939 796
248 858
138 175
637 225
537 111
485 783
970 122
584 285
221 36
828 12
774 399
426 98
210 823
108 618
537 883
719 769
79 43
851 812
391 159
158 452
417 171
183 594
217 917
537 425
297 654
120 39
178 549
639 357
701 244
396 710
676 599
18 58
516 154
516 727
211 121
539 43
81 407
108 552
212 847
891 969
298 127
254 225
145 779
699 84
4 8
760 433
575 782
389 103
619 579
284 323
581 685
801 402
782 620
895 45
952 493
492 478
676 866
610 335
958 135
244 887
890 242
249 234
32 832
215 876
52 643
19 135
722 698
944 801
860 652
710 184
966 214
398 546
609 126
708 54
372 697
211 710
51 135
884 584
2 138
637 772
372 44
703 439
462 501
95 483
908 541
70 404
215 135
914 138
366 732
293 223
955 308
226 745
597 470
190 295
535 465
139 380
711 434
142 614
417 626
877 273
741 367
898 227
844 734
536 727
573 419
884 325
147 917
721 448
856 767
601 503
66 743
640 704
768 437
724 493
955 530
187 217
206 664
246 398
606 446
533 134
257 960
717 475
518 624
935 80
918 331
229 874
851 582
123 302
655 313
513 250
351 224
312 26
386 151
47 948
635 331
263 721
251 31
841 472
110 310
588 182
109 928
661 590
846 586
80 357
333 525
709 297
943 227
638 130
92 757
806 123
130 621
591 414
494 831
545 299
618 892
547 174
631 223
825 592
753 614
677 304
916 10
425 501
117 215
742 63
211 14
341 766
655 843
200 615
239 19
369 16
60 204
646 472
562 727
691 81
16 580
246 940
633 880
523 602
233 228
513 298
844 406
221 400
317 133
921 61
405 148
207 173
192 154
428 941
359 667
605 863
496 466
440 569
739 9
210 240
207 487
78 917
617 799
672 515
912 18
571 503
536 275
38 882
681 814
739 963
388 133
607 560
756 840
47 896
674 874
108 805
90 357
308 476
628 371
24 812
166 876
25 899
617 57
447 673
447 124
620 34
771 141
696 712
850 880
864 910
901 844
60 41
722 484
212 874
49 195
361 766
178 412
786 585
54 124
627 353
868 93
778 421
155 65
303 386
692 152
250 951
514 648
52 767
360 508
91 940
641 408
662 933
275 541
98 694
944 885
689 134
58 936
843 870
309 467
901 767
477 338
794 404
687 20
428 780
164 570
898 675
611 765
262 241
500 868
228 150
252 114
415 454
343 786
117 522
607 777
169 21
352 14
188 649
395 289
948 265
588 784
94 947
312 54
681 792
573 794
426 393
177 38
17 860
166 84
696 465
381 265
606 777
717 495
55 712
773 563
408 334
686 161
721 387
418 913
139 238
790 76
765 558
507 479
694 929
201 313
458 649
457 903
439 787
406 23
228 515
709 326
601 325
486 961
452 817
881 229
868 14
382 331
790 137
390 544
406 134
725 710
249 296
378 467
395 147
971 330
4 787
505 761
777 21
228 751
390 650
781 709
500 284
711 825
17 853
864 804
648 774
860 88
776 677
544 343
873 186
303 246
413 7
416 277
325 165
769 279
256 334
752 244
574 23
138 469
636 820
692 563
676 816
754 149
594 74
867 120
480 726
886 377
688 464
445 434
391 335
858 503
37 951
128 525
457 284
954 962
144 297
719 710
261 879
719 698
686 942
946 200
378 774
489 198
107 870
719 264
311 478
665 881
62 227
171 885
429 314
698 454
141 582
261 438
490 152
898 652
574 709
812 253
185 798
228 959
50 512
325 63
369 935
688 471
409 955
910 175
428 294
953 879
71 732
935 848
209 911
166 816
78 253
372 474
447 637
903 922
931 621
149 552
836 930
379 409
6 948
118 274
865 144
99 903
158 883
609 447
594 608
386 61
336 10
923 334
654 940
690 79
29 404
935 193
625 223
205 526
627 322
220 948
973 338
974 96
355 346
898 698
447 416
106 732
488 356
418 765
515 153
66 377
574 108
756 917
851 17
216 19
13 582
605 599
418 876
910 532
241 346
868 265
393 855
150 287
887 665
661 766
478 146
965 138
453 965
290 146
109 761
852 572
79 929
851 367
686 737
246 37
748 702
451 582
857 719
380 813
931 135
200 592
915 372
42 610
205 406
575 235
902 658
281 510
935 323
177 566
839 120
221 214
749 954
695 215
70 128
771 400
711 950
315 100
228 643
562 159
547 836
801 64
472 786
241 776
738 115
738 444
529 269
617 8
346 186
212 737
303 138
877 710
786 208
183 879
324 785
891 36
741 769
268 853
30 961
204 300
876 737
199 954
589 35
960 274
722 913
246 683
530 92
531 333
588 810
338 476
256 584
899 602
4 331
719 823
832 769
172 879
795 622
857 831
344 870
455 626
195 763
666 735
280 835
887 623
496 826
45 921
970 717
840 722
388 745
426 548
150 973
389 966
564 834
340 321
107 541
533 542
699 177
679 816
320 515
187 237
799 736
673 1
712 623
213 883
32 737
52 122
71 373
246 311
774 669
210 167
948 810
294 11
670 263
405 508
923 627
72 712
417 454
767 663
164 739
426 368
898 760
846 802
775 855
429 844
338 621
654 880
141 611
256 312
703 358
727 663
740 858
171 966
633 693
27 820
256 471
81 243
480 821
29 40
516 155
732 706
503 235
378 957
547 545
732 438
436 430
510 107
455 723
627 770
369 534
315 395
480 639
392 497
635 103
583 215
696 543
219 410
537 907
256 757
524 647
536 844
72 234
969 659
656 476
471 879
185 399
637 747
723 340
459 833
892 479
110 414
111 532
773 135
617 844
887 340
193 762
391 869
452 135
430 757
931 304
692 676
756 315
877 931
926 672
174 325
360 460
751 538
255 720
251 890
664 591
385 114
369 853
244 393
282 580
935 393
708 821
927 30
400 828
344 437
587 467
25 817
660 621
459 932
81 649
260 744
442 19
102 353
211 689
50 132
360 703
770 576
191 814
937 49
297 613
687 901
814 759
629 190
13 353
234 389
295 845
551 15
807 346
157 945
55 860
528 299
944 188
216 344
859 11
626 479
884 580
373 855
891 771
886 414
7 468
64 566
29 103
738 621
451 214
738 251
382 290
934 512
974 621
634 478
7 560
690 28
512 649
627 309
773 137
709 519
906 872
356 357
212 482
432 776
878 561
95 751
238 460
365 903
370 563
846 576
171 558
663 82
370 960
673 875
488 954
145 947
536 914
352 815
886 260
367 724
444 188
155 460
891 403
266 217
535 71
816 456
380 443
923 488
840 632
117 377
60 649
70 489
904 383
655 260
581 342
475 710
562 353
315 479
589 319
202 3
241 36
630 542
957 401
732 318
561 403
245 730
968 363
144 349
458 658
756 202
829 300
776 936
445 632
466 872
809 423
104 182
821 952
808 932
369 18
960 153
338 229
47 64
567 542
857 519
171 265
308 39
571 497
183 473
935 703
42 59
812 663
475 941
814 520
212 571
231 963
490 805
508 580
136 855
970 881
661 155
129 890
648 726
575 432
207 319
942 326
762 511
782 815
622 320
749 712
395 41
315 285
7 910
946 950
891 539
878 153
473 742
662 357
686 367
724 43
819 224
89 451
695 594
416 637
334 376
220 882
442 206
422 895
372 3
111 75
171 780
673 48
270 102
951 532
491 680
2 333
262 309
77 29
5 411
317 409
524 23
249 118
609 944
902 88
696 435
533 815
642 563
590 229
612 808
629 854
919 107
795 441
926 235
31 438
749 7
92 160
185 770
166 698
635 577
214 56
751 771
535 822
368 744
126 437
281 384
730 10
968 305
359 848
107 882
364 892
213 158
974 160
381 267
383 93
391 442
908 345
589 140
62 659
728 406
196 126
750 957
969 487
453 617
553 224
437 922
369 425
66 217
206 947
562 110
249 294
356 718
359 281
915 601
145 764
22 476
312 584
333 607
395 810
653 278
159 188
513 569
94 404
39 269
332 281
208 791
599 579
141 674
568 652
326 140
790 287
952 237
409 240
542 122
467 38
715 524
107 578
182 922
808 469
908 598
673 551
656 238
213 647
606 301
73 149
348 549
75 167
933 46
96 853
151 607
512 54
482 11
29 383
178 539
565 93
676 525
145 437
536 408
607 600
611 307
648 775
177 525
481 586
944 805
651 306
393 518
533 655
471 959
537 580
772 424
648 577
839 712
352 179
595 548
799 881
310 336
158 362
752 661
162 460
473 706
415 489
646 207
280 586
221 459
758 766
463 876
889 637
943 438
375 69
486 413
895 937
239 384
523 545
372 476
708 86
965 699
507 162
473 118
455 649
573 38
168 430
276 727
225 323
320 463
871 257
581 38
266 336
50 101
70 671
570 130
254 619
628 522
166 130
684 305
45 373
642 218
536 699
708 298
554 235
790 152
352 591
166 678
199 273
245 930
709 909
178 698
506 287
412 866
660 297
798 484
866 184
145 223
209 113
544 759
814 566
525 502
527 941
289 953
133 528
936 438
187 825
77 58
422 48
800 555
379 651
250 753
209 765
677 438
751 403
272 499
898 347
405 270
116 154
667 538
393 35
281 702
526 624
618 753
9 109
735 748
369 85
813 839
449 618
691 407
363 198
418 167
293 777
628 236
279 959
377 563
104 277
604 706
865 838
754 403
355 721
676 295
795 812
562 625
925 118
730 613
250 446
470 93
553 959
971 408
9 697
594 794
222 103
44 899
690 611
450 905
675 141
164 879
381 767
455 152
850 861
779 833
726 789
138 33
965 662
430 916
17 816
235 460
71 279
898 743
756 154
780 666
640 875
212 821
361 118
824 890
606 470
60 653
728 239
634 432
904 755
780 508
339 20
494 944
127 326
884 824
479 563
221 723
501 189
449 612
212 448
181 839
886 313
839 560
178 952
55 652
130 184
901 700
202 418
297 665
891 762
514 830
693 314
640 751
752 36
205 932
811 278
354 682
45 188
709 666
32 95
447 497
126 484
860 396
350 889
932 874
81 307
64 399
636 848
506 791
281 703
332 959
42 430
633 718
775 127
448 62
945 608
288 407
937 960
506 694
610 275
849 553
924 714
559 734
505 44
244 958
83 273
717 67
507 650
257 585
112 655
774 950
940 791
940 348
64 125
537 264
32 86
488 419
587 913
273 585
398 133
971 69
864 590
811 201
163 452
708 410
932 706
80 652
960 353
715 112
727 720
216 476
656 841
567 779
715 457
898 577
942 521
457 592
167 275
81 952
518 853
745 36
952 214
655 14
490 291
380 454
556 306
21 437
610 80
884 631
679 475
78 773
545 269
263 454
635 74
426 620
715 224
256 304
700 65
78 14
139 628
32 732
564 337
682 340
305 402
902 243
662 600
222 67
99 321
427 899
449 433
428 677
418 793
116 850
899 135
809 472
168 464
701 730
904 218
975 602
228 672
523 967
562 702
948 632
895 260
145 381
954 310
330 179
774 928
756 864
750 522
436 892
29 546
945 921
390 429
840 764
66 425
842 86
181 525
668 580
228 467
429 515
66 863
485 460
391 593
752 733
52 798
1 463
935 836
661 457
591 349
404 41
208 346
406 285
889 335
597 689
946 318
782 541
72 804
514 135
327 430
44 316
165 549
539 590
648 396
830 916
356 520
562 187
151 718
200 957
711 324
324 876
474 36
455 10
663 236
482 275
832 40
564 493
584 952
861 744
128 788
389 876
535 619
203 450
630 890
650 876
709 948
229 879
89 495
716 938
181 972
293 642
719 785
99 952
431 340
390 873
169 275
119 144
926 469
158 99
507 569
81 401
610 311
973 497
370 326
891 879
465 236
197 412
739 714
470 341
609 568
634 119
169 374
375 694
780 844
176 413
679 974
784 279
288 236
397 785
921 683
1 468
258 458
244 741
832 94
371 586
869 503
711 969
547 591
380 863
292 307
708 928
774 257
317 277
248 591
187 227
819 761
308 866
129 445
258 238
921 598
957 603
544 897
373 437
429 791
303 215
655 98
342 374
24 260
612 141
316 834
562 499
119 155
857 34
531 746
215 9
749 960
974 816
419 888
132 810
581 151
62 309
137 15
429 57
626 602
400 961
679 965
22 903
60 206
45 601
797 846
49 603
695 566
105 113
783 859
471 549
717 450
773 432
441 63
42 7
315 431
44 295
615 653
136 810
305 770
887 107
824 835
199 757
2 815
174 703
574 121
721 475
44 182
83 501
485 810
894 96
895 114
435 560
442 803
123 721
902 309
506 836
68 67
164 276
458 931
607 479
612 512
483 953
640 150
732 759
474 604
657 250
557 274
705 137
688 532
780 349
319 35
301 596
268 393
142 744
60 945
30 604
634 573
302 423
871 711
291 91
234 664
533 740
54 114
679 874
369 439
81 379
83 564
779 51
393 135
105 960
164 275
866 149
629 631
303 726
308 399
724 669
123 676
386 760
481 374
240 307
221 335
213 560
799 545
34 287
126 468
17 128
346 643
609 401
755 174
902 528
276 682
26 517
207 189
745 766
372 742
921 759
369 424
668 107
465 10
673 557
358 138
236 101
770 96
592 896
203 372
904 284
481 394
143 481
391 695
125 93
658 224
808 269
829 734
574 468
650 621
856 879
301 582
328 929
512 395
640 112
716 798
626 376
75 120
238 916
486 964
316 40
462 438
390 435
284 892
193 600
66 710
343 497
878 179
570 864
627 50
441 812
317 140
453 2
391 799
712 465
806 271
241 913
679 418
55 793
167 820
351 748
795 570
139 709
468 706
213 828
487 173
273 820
555 471
518 290
693 376
902 909
248 812
361 409
396 67
117 302
646 61
625 467
764 521
636 822
657 418
885 599
823 896
630 741
226 549
647 669
248 522
872 15
122 626
657 677
417 694
144 394
199 282
535 267
60 700
811 412
656 551
740 603
209 450
871 126
244 770
207 603
715 399
554 438
221 346
204 310
847 698
315 631
637 850
908 347
303 249
33 189
163 148
239 353
893 46
760 56
499 12
869 437
337 876
908 298
301 921
360 592
841 198
199 591
792 669
150 621
617 309
885 464
379 467
145 600
510 543
920 215
793 335
923 34
58 274
728 138
929 287
506 399
841 493
164 134
661 635
259 768
180 193
630 49
427 4
76 941
100 14
654 289
72 242
97 637
474 231
916 559
186 659
867 27
650 34
212 249
103 890
325 38
588 935
716 224
938 818
351 726
390 738
193 361
925 905
68 917
514 675
416 3
108 124
326 463
826 594
95 262
294 346
210 121
371 726
691 592
670 788
488 32
235 572
126 61
975 735
953 154
348 674
111 134
58 374
910 697
78 973
136 678
708 287
181 3
627 476
25 580
152 177
523 764
71 161
390 415
639 620
178 432
70 226
345 508
276 82
741 919
633 118
55 825
906 969
187 235
818 855
656 462
915 48
510 521
904 319
687 836
728 717
505 33
656 559
970 253
80 764
193 407
257 33
95 961
230 872
357 880
303 707
259 645
734 855
36 411
621 757
537 410
316 769
903 63
541 643
333 353
946 392
431 846
583 264
316 101
202 293
946 846
251 62
152 39
99 224
27 79
88 538
159 827
897 808
605 972
719 175
461 681
740 639
134 944
395 624
72 905
219 425
327 527
516 168
537 498
848 131
64 103
248 260
447 763
393 432
251 785
596 525
255 889
54 907
275 586
511 341
630 799
4 30
632 468
248 702
245 407
451 765
239 234
386 842
884 253
830 476
80 896
612 727
393 223
782 521
288 861
272 306
364 131
75 331
865 85
631 525
904 301
653 292
103 237
595 34
180 363
180 160
199 132
352 633
884 617
24 290
749 603
262 300
289 720
500 37
213 595
514 807
714 232
715 234
970 126
128 373
511 338
170 208
885 444
226 478
210 827
375 578
568 504
251 693
955 290
601 903
277 140
686 438
104 814
871 974
330 621
937 387
249 883
592 578
689 91
798 61
246 190
900 399
629 307
260 7
728 28
657 925
488 427
288 216
841 854
951 791
112 321
536 558
4 12
48 110
763 930
861 899
491 464
510 879
388 371
844 498
707 759
194 907
429 101
776 346
192 217
396 959
42 942
366 576
869 227
544 290
727 601
359 430
324 681
70 973
915 445
719 446
897 207
24 229
104 51
474 353
515 890
867 318
302 815
178 571
143 782
241 699
849 452
496 554
425 557
524 340
283 84
303 25
927 740
489 437
715 105
276 415
384 620
810 335
386 302
260 812
447 569
430 404
863 267
283 370
265 963
932 282
842 853
383 632
51 430
42 353
167 401
84 465
500 15
12 296
506 47
749 33
878 319
606 576
365 280
47 357
243 964
64 498
210 369
29 683
212 381
748 292
417 646
893 560
436 723
455 886
244 251
816 678
176 875
66 966
676 403
397 110
907 890
591 265
934 736
650 591
958 28
815 717
121 788
12 336
344 278
170 637
390 780
539 503
691 262
601 767
446 707
852 881
547 170
88 336
144 34
398 301
524 502
366 940
721 739
631 577
62 383
194 613
447 1
790 833
182 852
440 669
122 318
657 133
245 866
670 264
933 739
105 215
217 557
821 607
509 226
187 776
136 214
650 387
869 680
744 580
391 20
360 35
129 807
567 720
906 337
914 879
537 613
573 554
61 896
27 272
339 48
249 416
778 745
17 474
660 402
18 586
771 68
488 875
223 874
667 730
675 247
163 404
73 681
610 343
439 99
204 543
388 153
164 843
249 130
108 833
472 810
327 404
185 666
348 63
738 590
405 32
185 845
657 52
513 914
823 757
12 960
157 745
519 220
354 600
191 127
618 681
359 35
270 330
886 253
660 515
865 186
211 306
727 788
892 929
878 14
312 43
459 140
170 642
302 383
486 744
827 600
405 952
723 189
148 414
187 323
258 919
372 188
138 225
48 948
635 704
968 741
755 885
628 493
150 803
721 8
77 567
575 967
211 176
174 36
784 381
686 570
550 643
803 624
771 521
646 663
133 608
762 592
827 772
320 734
64 899
688 576
356 705
748 835
140 616
327 501
105 468
554 721
723 335
758 492
405 892
139 726
636 520
841 606
145 441
516 216
168 102
499 596
597 915
780 341
512 576
431 408
889 669
551 876
826 349
865 347
761 154
201 423
392 275
671 525
448 714
144 953
877 165
553 856
94 796
860 953
699 566
574 678
168 713
958 193
762 678
45 834
378 896
639 433
253 959
548 817
405 804
185 890
535 163
646 793
968 712
297 689
277 33
211 407
121 840
910 279
289 479
92 549
165 959
439 682
262 929
840 703
641 946
859 103
642 214
1 198
827 94
811 335
958 889
506 205
393 620
451 623
804 425
589 941
612 758
684 903
780 64
633 550
228 848
853 41
139 314
213 287
251 68
33 137
625 186
268 721
516 63
692 863
241 439
81 623
911 286
815 109
945 198
891 731
864 807
289 789
385 498
904 147
445 614
210 28
176 525
527 19
713 518
2 816
574 705
556 948
477 466
354 636
554 856
210 175
193 237
925 724
302 114
655 768
603 115
661 415
709 529
830 644
377 950
897 153
750 572
354 814
453 159
806 263
717 269
755 477
650 454
887 834
449 527
263 804
264 113
839 325
271 882
240 274
666 710
77 586
851 245
942 363
974 632
332 890
746 446
530 643
481 556
507 494
272 41
775 225
55 584
69 349
61 950
139 788
232 498
527 137
931 154
44 853
256 503
593 434
595 306
613 959
377 697
509 875
330 591
628 298
935 158
244 51
562 232
893 666
513 404
430 336
731 768
364 866
751 662
789 335
850 175
479 435
635 626
564 961
391 103
657 959
450 855
344 462
17 280
970 718
37 699
594 10
562 628
864 628
946 284
780 789
676 317
488 771
677 714
361 772
751 258
901 551
167 93
351 335
761 39
510 820
372 874
650 420
941 917
583 793
455 823
42 66
832 822
944 336
525 493
938 362
736 685
915 474
439 195
612 247
297 363
390 952
463 146
391 401
525 777
73 204
539 608
774 850
426 561
832 724
686 740
908 464
784 343
382 209
271 477
554 532
829 536
818 399
888 310
852 804
872 101
466 961
51 127
694 674
436 665
588 814
518 340
240 585
866 757
634 834
637 566
965 660
822 626
948 614
725 13
112 659
837 295
631 761
262 307
762 120
527 546
361 959
35 468
717 26
388 749
297 944
946 892
837 310
568 491
215 813
110 855
553 377
36 491
61 253
203 432
630 377
696 93
871 667
356 325
746 240
106 134
417 132
145 511
623 700
936 680
958 126
711 80
597 456
739 387
871 614
747 742
122 294
300 437
322 286
648 812
300 560
523 668
104 404
289 51
18 92
576 92
170 291
409 220
516 536
195 313
485 874
567 74
831 839
840 124
951 550
813 331
168 825
484 964
852 153
177 876
428 507
758 134
509 736
824 161
701 908
719 605
23 96
315 939
561 460
377 770
283 287
528 147
583 797
973 237
405 926
895 967
388 723
244 309
727 504
906 173
904 460
68 430
690 820
865 902
427 13
975 115
486 723
675 162
752 560
701 639
951 862
819 89
857 782
824 12
221 964
735 789
701 474
280 395
642 341
201 931
568 362
98 224
244 316
125 15
575 711
597 448
956 466
246 91
655 224
589 229
381 342
952 910
590 463
720 501
958 19
373 529
544 232
47 399
395 614
450 794
821 334
568 787
971 593
880 549
718 848
832 33
612 346
439 747
388 452
485 736
854 155
824 333
511 820
314 653
701 783
668 921
647 343
176 43
181 278
758 883
618 596
430 846
487 299
309 498
196 607
864 700
674 558
797 786
713 35
236 307
55 84
257 5
650 588
45 158
946 904
409 23
50 43
915 712
827 404
61 425
382 958
50 186
68 557
736 880
382 255
934 312
168 305
799 384
458 74
975 645
227 132
447 508
749 322
108 78
271 770
934 395
594 843
176 598
61 349
192 684
392 489
746 917
487 892
923 409
130 475
350 294
260 253
886 404
27 282
339 49
690 131
748 960
507 431
396 882
181 930
53 925
536 79
761 896
830 170
942 608
52 750
660 944
916 855
312 288
97 118
412 619
617 733
466 742
356 367
966 198
306 410
943 349
55 736
106 841
705 842
71 522
45 127
444 953
375 434
106 930
565 549
931 559
155 57
202 401
811 159
481 667
778 5
859 501
378 5
293 545
457 632
4 225
478 966
782 479
871 28
228 708
203 745
629 40
280 665
320 907
869 794
283 632
528 463
305 122
162 792
738 218
117 284
689 186
277 910
168 462
474 854
209 169
634 705
546 232
965 167
808 596
436 317
141 887
800 839
83 576
500 786
139 441
191 960
361 761
359 34
895 545
306 759
474 373
654 747
679 879
851 273
703 19
388 335
544 632
176 215
655 860
69 89
73 593
934 699
774 241
2 154
597 24
91 107
140 367
694 56
325 368
218 663
152 399
25 903
617 746
617 61
470 803
895 291
204 377
239 335
4 64
652 724
907 702
175 468
250 832
316 56
698 265
555 872
332 63
44 932
133 58
644 882
106 765
530 11
660 272
599 580
735 541
884 310
297 591
524 621
45 420
547 363
306 876
715 410
105 347
22 269
298 157
923 201
651 972
631 340
303 236
128 145
675 817
254 160
933 432
618 152
497 224
593 843
776 501
523 278
248 324
448 337
902 396
619 353
161 636
262 668
73 609
351 801
834 848
902 410
572 796
339 220
503 63
965 459
73 579
648 948
492 925
150 713
130 358
451 30
871 529
901 817
488 31
273 817
569 484
603 508
574 588
5 615
705 153
447 110
231 173
414 424
70 117
418 522
382 508
455 478
475 881
150 486
813 94
701 281
212 305
639 21
782 125
289 834
895 107
950 153
950 706
701 830
851 452
137 41
121 172
781 315
142 335
59 326
588 779
185 719
934 795
634 185
562 682
191 331
583 693
179 275
553 610
937 776
593 353
333 411
465 917
852 231
818 582
283 875
857 148
51 333
640 73
914 843
679 375
439 441
830 225
596 236
191 146
484 549
305 320
803 532
741 260
181 579
76 517
935 19
789 40
13 767
303 527
417 692
932 125
516 39
510 538
293 563
595 413
373 545
652 551
750 684
969 240
143 936
312 258
596 132
136 370

808 4257
67 248
484 605
423 45
10 129
550 349
702 386
139 763
614 181
778 527
727 398
122 382
159 697
290 15
503 134
554 547
612 606
518 581
335 375
29 221
655 185
547 512
667 252
9 751
674 22
293 147
24 14
149 287
617 574
687 71
706 793
780 48
102 763
81 630
342 330
694 576
716 258
403 361
370 3
632 338
280 295
247 182
176 456
784 194
658 401
768 12
4 697
537 398
667 357
226 312
797 580
279 749
193 545
690 801
358 366
565 334
87 339
640 571
712 720
293 752
771 621
665 498
313 630
443 626
9 732
344 546
92 448
203 696
609 669
694 638
645 770
693 644
722 737
9 455
544 257
652 98
671 349
250 219
468 150
736 686
608 339
664 37
719 479
59 102
233 685
333 144
564 115
142 724
496 49
151 670
354 518
613 746
321 375
394 343
13 495
753 760
570 457
36 80
219 336
771 254
258 502
95 248
481 231
616 401
118 764
29 175
196 286
432 647
470 798
606 268
1 280
93 455
519 714
385 428
630 150
315 120
445 724
768 490
709 525
308 480
408 349
604 290
731 785
36 310
75 398
149 467
294 475
342 265
189 751
589 788
707 142
799 540
104 430
762 134
328 439
792 144
207 97
529 185
288 765
532 210
532 527
510 18
661 434
21 408
722 247
529 626
745 603
134 807
511 130
13 739
88 81
583 411
270 633
145 510
436 222
707 497
366 283
629 233
519 126
423 421
689 761
706 697
670 772
666 137
590 486
93 369
755 242
519 19
571 668
691 794
799 517
619 348
675 94
797 421
197 782
398 129
551 325
94 703
572 718
776 390
29 239
690 641
86 542
196 765
511 444
217 784
569 723
592 639
719 123
536 593
496 579
498 398
79 415
462 269
669 651
185 418
394 213
196 268
238 289
694 701
420 191
40 596
406 116
460 227
704 668
597 532
11 292
267 491
584 567
225 199
73 424
275 411
477 608
187 269
22 371
685 668
190 266
544 389
429 765
447 738
395 399
179 490
804 404
473 278
296 267
787 670
554 504
426 100
288 109
358 193
108 518
415 410
418 682
311 622
669 89
391 157
105 545
341 248
450 602
677 137
616 459
294 6
246 271
671 214
525 272
503 148
143 724
72 136
570 196
74 33
293 502
648 272
557 330
670 489
42 180
619 688
28 466
86 279
197 421
141 664
570 736
627 442
363 213
280 527
734 633
633 69
451 550
381 729
464 103
557 662
437 365
88 82
649 246
666 193
781 696
138 739
567 783
736 263
123 419
307 444
702 138
338 466
598 412
139 210
584 400
362 610
382 795
680 334
386 563
223 114
8 556
427 735
32 103
359 57
142 236
165 181
458 129
22 75
760 107
595 737
796 121
687 335
175 411
250 193
456 375
111 387
30 718
81 542
482 567
88 760
214 455
1 81
171 735
716 573
290 600
747 461
676 527
267 227
123 629
396 775
140 304
113 244
21 670
521 306
577 360
427 155
138 257
249 514
583 779
459 509
541 233
292 522
575 168
647 335
647 794
118 246
445 414
301 505
690 677
379 556
731 490
533 429
171 449
75 724
702 276
261 470
199 213
517 240
224 54
702 611
99 449
506 181
427 470
746 367
711 318
658 326
170 639
771 48
383 611
96 35
439 781
465 402
249 413
690 790
468 310
294 500
715 136
272 574
751 574
545 375
130 75
456 160
78 475
713 263
84 329
782 690
234 352
191 511
699 291
347 502
16 634
645 382
275 552
78 145
412 10
583 38
436 200
346 201
590 579
168 456
541 64
76 394
559 644
661 415
764 807
675 411
516 380
203 100
760 743
593 668
346 430
29 364
470 608
583 324
676 378
440 567
682 474
96 169
702 324
481 267
614 111
9 249
711 526
536 720
34 211
54 685
71 513
22 463
785 322
228 752
482 704
728 792
358 119
490 801
677 539
218 336
74 509
75 505
153 61
234 269
615 480
800 367
156 81
741 747
297 760
92 54
365 368
643 53
771 169
13 480
120 183
337 221
343 633
765 461
171 318
595 765
390 523
220 690
321 304
285 149
344 4
569 633
2 3
614 428
544 744
546 708
467 318
68 256
287 491
804 54
17 243
716 494
75 510
757 801
603 501
448 145
667 504
32 43
712 200
629 312
439 792
204 758
134 371
151 61
67 172
156 571
794 472
553 227
536 165
559 158
168 724
408 430
43 634
674 322
142 322
381 154
218 748
601 753
368 177
612 522
172 334
9 116
335 761
450 277
359 365
70 437
401 703
147 303
520 157
66 238
139 236
159 174
716 687
204 143
214 660
791 508
207 341
371 698
134 703
799 474
534 750
554 663
548 279
327 552
199 400
456 306
293 731
330 343
752 229
632 533
231 726
83 574
619 480
710 489
657 243
134 574
128 121
265 15
611 523
777 23
65 722
482 160
727 192
654 160
657 140
487 380
676 514
109 52
445 347
646 499
478 332
780 334
66 233
599 305
722 347
544 639
346 92
163 574
58 415
369 469
426 724
207 584
346 361
65 39
498 323
124 684
432 525
315 667
274 301
573 701
595 656
598 562
456 620
250 92
344 590
346 261
719 253
19 515
555 14
315 95
8 475
786 783
176 332
583 692
359 355
553 609
420 552
437 726
479 345
439 663
193 114
671 502
361 587
13 114
70 109
551 395
787 192
294 167
130 398
313 150
369 676
614 622
298 287
555 743
373 180
800 53
195 342
450 754
325 49
476 630
96 753
170 725
714 322
784 46
160 323
288 392
328 747
1 308
682 255
239 59
538 213
426 356
246 726
233 291
108 723
350 516
771 329
655 234
353 650
545 363
289 738
680 611
808 568
96 212
497 138
707 253
65 49
29 357
301 710
577 26
565 324
197 111
640 549
473 719
147 268
276 79
95 399
5 669
316 275
669 678
654 10
358 776
587 734
198 612
808 769
586 10
592 104
366 263
61 747
298 239
155 362
209 371
565 619
93 640
680 784
569 533
234 119
363 527
397 180
751 229
418 283
723 10
221 336
573 486
8 515
769 43
88 806
702 527
89 710
473 679
2 215
223 790
777 299
694 211
297 497
742 118
63 116
671 739
610 410
395 499
128 214
74 229
519 559
225 119
297 514
479 339
725 732
389 615
11 796
529 276
692 701
295 572
608 229
419 94
535 282
221 227
61 466
545 610
752 26
565 180
128 431
808 236
592 254
27 626
420 616
280 152
621 306
248 505
636 239
745 451
801 262
529 633
676 291
96 46
224 775
164 31
93 411
186 665
443 541
176 499
618 351
105 463
711 140
548 306
625 203
346 540
440 751
476 136
259 552
573 705
117 351
485 10
262 685
484 216
784 472
586 604
333 685
592 102
536 755
591 549
754 710
319 677
360 469
640 167
390 345
110 684
474 69
112 192
511 216
276 262
96 447
422 182
117 113
687 654
155 489
104 203
29 496
530 183
125 497
471 272
608 474
57 68
365 643
630 795
385 589
244 289
390 405
637 278
450 109
468 380
416 165
113 304
42 598
423 471
81 132
595 693
618 421
575 402
568 348
274 667
478 568
640 48
460 690
427 602
725 138
641 442
128 206
729 642
288 515
54 320
165 264
682 98
422 740
204 687
319 5
525 163
20 332
198 448
532 107
704 10
119 684
64 739
512 23
21 181
627 233
681 270
175 418
138 449
594 34
722 239
151 203
585 223
330 490
533 251
359 243
804 18
682 279
661 234
791 326
225 267
464 146
389 739
639 806
288 15
586 721
92 528
93 329
629 311
518 767
167 487
595 46
667 589
458 317
563 482
763 433
328 422
401 528
680 464
774 398
578 775
106 79
134 306
709 272
692 376
274 489
692 738
416 179
222 270
737 516
554 527
804 85
135 703
465 652
797 3
543 547
341 306
514 177
257 323
596 643
22 477
492 697
191 389
619 444
319 662
511 696
537 449
298 349
615 765
737 136
699 720
549 644
198 306
754 322
721 765
280 528
99 756
175 413
806 507
607 35
319 257
189 784
226 26
688 486
555 470
670 751
182 509
656 767
72 801
624 382
38 803
576 795
420 379
217 325
646 291
741 537
99 466
658 653
571 710
451 752
694 385
804 193
358 49
397 461
665 752
149 463
8 98
673 368
15 607
751 449
552 265
51 633
131 380
206 515
774 64
379 534
587 528
458 559
625 232
1 451
759 310
372 52
338 132
267 384
680 17
125 332
676 44
785 790
146 489
243 659
68 73
759 632
575 607
675 227
652 53
193 501
247 574
587 382
682 525
807 349
96 45
496 642
519 242
464 603
528 309
377 129
195 390
237 255
19 58
3 229
199 500
206 522
27 763
764 240
547 480
546 43
128 411
550 757
17 527
644 634
791 245
227 349
176 179
667 429
452 574
419 194
437 751
702 608
741 523
171 488
427 703
544 307
63 357
543 162
328 115
38 336
142 539
640 345
146 678
606 703
665 143
648 262
78 425
65 542
228 126
234 223
550 669
769 791
535 43
719 318
756 564
617 544
516 590
563 367
139 282
17 744
58 169
73 343
396 266
54 683
53 593
184 107
186 569
316 165
337 421
65 355
341 608
70 555
370 240
482 310
284 371
528 660
449 10
175 339
28 474
39 540
508 102
246 200
498 686
666 251
225 409
633 260
630 212
672 659
638 23
655 415
1 421
798 376
93 215
165 762
115 515
649 351
79 461
209 336
745 211
216 664
84 782
585 748
226 513
345 765
577 715
437 320
239 25
520 598
61 127
27 460
172 755
583 30
669 272
197 757
297 178
411 735
439 237
367 126
151 82
264 708
451 748
416 271
455 568
4 103
416 626
278 644
797 620
634 574
176 565
418 622
492 425
680 442
298 723
21 110
723 658
514 384
779 619
247 433
178 664
470 400
437 158
358 738
223 184
722 521
445 675
8 566
184 23
265 472
67 113
530 779
48 394
587 653
808 718
643 322
607 157
403 147
520 556
505 739
652 396
564 606
140 773
424 343
658 710
715 372
309 69
789 144
742 654
792 534
661 605
74 142
411 541
588 101
267 138
800 488
640 602
532 35
454 166
457 213
344 540
702 375
187 406
151 130
725 630
484 311
563 697
124 270
468 435
713 319
218 176
553 440
735 501
609 382
583 255
275 337
580 41
670 352
584 44
700 242
70 540
197 743
606 183
97 658
665 301
595 121
361 28
284 749
639 766
383 16
54 353
416 631
734 710
255 60
536 62
573 135
536 86
66 488
365 522
47 702
799 16
469 766
614 459
530 609
741 257
612 192
218 285
88 564
305 18
5 510
470 418
625 713
662 507
520 587
133 743
572 335
483 638
557 190
565 740
341 611
803 307
292 72
476 391
131 401
24 757
21 781
661 529
135 227
543 230
799 136
180 309
381 500
328 736
590 775
20 158
439 418
628 558
367 764
355 564
443 362
47 798
29 88
174 494
350 646
471 457
91 758
21 564
391 74
559 322
785 488
141 703
36 752
520 401
511 539
513 739
385 777
760 343
482 271
119 539
411 777
191 768
396 23
379 438
198 595
715 394
274 3
720 394
478 308
26 349
9 291
617 22
623 666
569 704
51 664
9 345
470 210
718 654
700 429
41 421
527 542
673 312
108 558
403 388
280 591
47 573
13 765
13 339
203 211
518 398
719 716
373 469
543 402
605 607
342 687
74 25
187 807
96 427
190 357
264 60
672 169
138 733
506 499
768 55
436 282
458 677
366 42
41 430
22 407
62 372
712 148
387 229
780 678
34 180
626 541
164 428
163 700
695 192
95 244
315 255
264 282
508 177
683 795
453 720
258 405
152 69
238 129
155 365
665 290
234 449
689 477
588 253
328 646
224 599
45 641
778 677
419 737
727 528
250 762
414 387
713 565
592 587
498 272
474 664
208 640
47 411
27 779
321 380
597 113
583 278
416 168
162 475
453 253
436 400
702 705
481 236
373 310
663 64
377 504
656 200
103 568
523 698
594 339
680 649
1 261
203 698
183 480
175 634
648 487
61 739
558 35
264 400
563 212
799 223
570 222
801 735
469 14
345 16
604 562
259 704
12 390
577 432
156 387
288 176
594 593
202 471
661 753
494 233
31 145
797 390
356 202
128 232
14 574
589 409
79 501
628 660
168 362
168 703
278 334
153 218
551 557
598 712
161 349
399 272
313 394
167 355
225 248
282 180
703 410
485 241
488 43
714 710
492 723
228 270
683 343
24 737
490 158
222 735
744 380
9 786
583 808
347 353
536 487
387 173
759 235
209 256
47 159
719 667
65 161
529 514
196 773
537 223
237 615
165 469
277 678
130 730
636 24
191 732
412 210
175 367
674 16
717 644
96 472
563 744
404 23
558 45
230 98
503 128
478 392
91 514
534 607
367 335
444 677
775 291
439 749
484 489
798 64
156 523
517 313
506 23
453 71
346 3
237 357
494 251
575 182
530 326
408 45
744 242
365 697
104 81
359 779
674 654
677 738
123 178
128 631
202 223
93 732
24 272
758 440
406 269
151 369
708 152
699 698
261 211
567 500
329 272
224 160
537 334
628 198
538 49
50 499
481 522
206 788
707 666
483 661
617 422
11 242
305 751
90 696
626 428
792 113
605 343
566 363
575 485
667 588
279 642
618 335
655 445
91 648
692 233
675 574
573 634
580 765
524 162
673 632
637 295
231 384
530 620
88 487
640 468
143 766
593 607
624 757
188 770
617 624
717 791
655 175
747 245
552 485
764 603
700 376
275 232
187 663
295 142
458 534
714 626
686 549
346 168
512 472
125 298
35 459
164 528
38 628
599 757
521 268
631 154
588 282
444 730
139 409
746 387
267 115
303 730
658 490
473 285
92 196
384 181
721 71
153 773
392 213
507 10
270 282
218 203
38 283
498 446
389 317
192 348
5 206
475 312
474 634
808 289
314 736
130 158
295 135
445 364
708 172
468 774
414 350
162 303
746 149
94 775
790 352
149 600
295 469
679 515
761 240
263 111
543 754
342 404
688 733
785 160
714 215
200 490
57 103
771 552
276 394
477 172
298 590
688 271
497 269
50 373
12 444
88 501
551 617
666 539
728 199
68 698
746 87
230 447
303 351
711 434
15 75
223 685
2 355
383 138
383 802
151 70
214 113
673 415
196 573
587 132
18 44
589 152
516 136
496 254
612 335
8 725
261 141
155 461
360 72
322 152
255 340
225 662
330 310
403 456
6 339
409 752
525 738
716 283
33 684
159 292
397 25
1 784
54 26
185 678
220 310
185 268
60 309
634 158
745 574
218 345
48 564
394 512
92 582
592 390
665 336
188 238
546 464
689 362
99 671
359 525
345 71
471 340
456 94
475 785
403 236
259 275
207 617
759 44
451 140
504 149
717 329
434 236
142 651
397 385
436 567
456 173
128 545
188 266
188 183
578 158
209 801
672 71
359 755
508 724
221 718
186 299
434 522
274 261
134 430
283 471
32 416
450 149
288 26
694 45
342 630
38 513
676 664
186 380
719 650
208 220
391 16
411 267
624 665
804 290
161 800
110 610
700 582
772 459
629 275
41 794
497 261
20 752
801 461
32 563
456 287
109 699
805 376
702 330
94 805
174 137
656 248
715 578
362 233
71 180
2 477
227 143
560 169
561 651
547 382
33 303
799 246
605 609
417 72
626 115
196 603
79 307
22 779
521 229
711 217
281 246
544 322
635 310
267 7
29 327
682 48
422 298
314 419
559 506
742 94
525 241
466 678
195 380
713 164
274 318
536 533
96 162
792 703
405 339
741 286
151 307
688 299
9 699
448 501
86 589
571 268
417 376
422 579
24 417
297 240
597 490
620 394
369 305
363 556
508 6
715 486
275 351
369 550
80 330
78 709
124 98
762 87
292 206
391 6
84 104
90 617
127 735
327 30
464 221
477 685
42 154
8 6
465 507
526 317
72 622
87 766
481 283
383 734
702 803
423 262
557 559
62 296
504 612
32 326
278 130
325 469
329 772
702 708
189 370
29 651
222 670
190 486
796 197
67 121
765 701
509 137
682 582
224 466
95 433
807 487
657 337
673 444
747 341
123 552
588 412
715 364
530 645
631 684
95 700
648 238
222 641
174 638
673 301
358 321
218 746
640 594
753 436
185 428
611 489
375 242
631 399
249 53
686 387
27 735
570 130
379 451
785 489
246 83
365 55
225 218
124 25
502 18
725 226
446 392
504 399
50 410
250 639
396 242
45 15
662 765
203 181
484 339
421 257
152 480
8 421
637 340
245 696
66 314
195 537
333 360
378 766
293 396
538 310
425 28
43 733
797 630
119 291
11 33
393 510
379 158
290 677
578 394
699 156
719 282
524 517
686 394
463 472
577 204
196 242
270 210
787 484
626 4
455 178
40 329
170 46
130 134
281 404
544 590
377 85
106 637
487 770
626 407
363 353
42 683
439 703
563 149
208 772
709 242
31 26
396 120
400 438
218 798
420 118
350 613
97 199
390 602
450 752
30 773
694 802
293 534
551 239
589 56
126 549
168 374
715 669
575 688
318 733
405 374
583 542
675 156
17 761
613 278
715 53
492 285
772 802
607 574
21 498
314 364
596 272
616 121
83 703
84 665
86 728
603 430
589 493
140 240
20 641
737 113
663 162
757 382
390 279
637 664
492 514
470 234
532 81
643 206
104 514
594 608
39 654
499 732
374 748
285 223
91 784
716 242
86 268
25 642
9 5
742 529
377 579
621 352
64 522
713 474
518 115
716 436
165 394
67 806
310 685
96 308
684 77
208 286
561 331
495 374
102 766
383 56
450 800
342 242
300 371
364 299
518 396
595 789
117 562
225 769
100 491
338 394
695 678
264 244
344 775
660 472
71 428
119 506
594 164
613 83
745 733
279 750
618 46
691 364
105 113
140 107
234 736
436 751
607 773
91 732
57 169
366 413
791 793
42 447
354 509
25 651
63 776
712 609
657 221
620 743
345 563
179 612
695 642
347 77
455 740
439 480
316 110
597 400
462 686
618 448
545 608
231 381
557 461
517 612
573 463
519 768
596 35
667 632
265 163
49 129
531 111
439 385
593 730
95 152
346 370
543 673
655 684
89 638
716 347
239 564
72 348
235 260
408 410
8 191
409 71
100 213
645 355
543 746
17 127
366 279
295 599
577 578
119 37
85 698
263 783
412 560
452 399
53 343
573 75
39 292
663 803
522 181
133 303
465 669
712 283
434 286
415 256
293 542
455 515
652 301
467 410
78 294
585 425
808 446
292 348
517 474
69 472
481 330
425 581
689 507
546 324
106 713
230 232
267 752
330 447
348 542
347 526
478 137
31 489
796 329
119 750
544 199
546 183
415 183
327 81
40 102
167 534
611 785
4 449
189 741
443 278
355 709
725 462
747 292
758 148
473 696
719 105
594 580
465 451
546 803
124 704
17 589
288 739
805 770
2 81
40 388
649 750
651 766
657 267
587 3
570 73
273 433
2 525
96 638
150 765
227 253
379 355
269 448
496 113
661 239
785 16
684 192
45 740
543 176
742 182
780 755
707 203
694 144
146 774
453 615
347 805
497 538
558 279
541 656
800 337
195 566
87 368
333 554
57 632
612 433
482 332
464 252
48 512
734 100
431 263
88 407
497 669
694 651
554 502
369 160
39 322
596 653
297 653
742 647
597 80
125 671
492 569
344 634
720 761
350 305
170 398
116 521
616 255
687 210
465 223
369 304
364 515
108 366
536 126
757 559
702 431
99 758
99 141
559 404
390 124
47 181
68 401
196 750
711 114
434 807
375 627
386 130
759 315
355 538
758 82
713 145
328 141
679 218
520 246
367 606
7 729
416 607
20 239
759 9
476 679
65 514
46 650
303 183
416 340
713 706
680 448
40 490
3 693
371 472
741 180
688 256
796 545
411 30
620 272
68 85
432 718
14 310
772 299
716 374
529 365
609 351
95 354
570 120
356 690
412 764
144 701
128 49
383 91
75 794
590 650
756 265
293 691
65 221
142 534
613 184
588 15
475 340
516 710
518 157
517 802
793 287
176 87
102 542
762 286
561 552
552 754
93 195
628 5
3 698
559 410
537 26
1 474
536 251
426 402
338 630
599 160
629 111
713 402
714 480
609 705
690 44
745 462
84 35
801 653
699 708
552 362
576 710
666 254
151 768
274 353
266 192
504 331
161 33
397 384
329 474
255 235
165 767
350 559
358 548
579 404
320 556
618 563
105 73
435 226
642 790
147 534
666 272
598 526
682 736
691 542
601 87
231 308
711 419
490 805
17 6
328 535
20 21
439 299
575 432
65 612
652 408
800 363
478 170
792 134
436 306
648 456
646 527
149 45
759 36
264 686
637 807
105 500
626 709
401 491
808 53
437 477
699 550
4 656
133 399
728 311
764 410
692 146
17 539
350 736
238 374
94 539
22 364
666 422
133 69
9 436
313 765
524 461
671 142
492 645
552 542
475 266
494 384
171 472
745 440
84 49
781 245
47 73
252 5
308 332
753 646
293 400
719 409
745 758
671 538
159 728
364 43
519 736
777 300
85 793
195 268
530 12
127 260
681 136
689 638
737 744
460 216
756 351
744 323
637 471
104 306
88 12
586 192
417 64
681 25
274 737
204 213
497 421
580 486
66 146
13 68
8 572
414 712
1 516
350 287
704 394
741 64
623 211
38 39
598 545
161 111
178 404
361 769
785 508
456 270
552 803
699 129
242 748
5 235
153 242
246 593
321 270
283 627
361 375
656 769
568 430
450 349
364 740
364 177
165 405
170 630
580 606
485 169
111 73
695 362
756 372
707 678
524 760
196 537
523 752
452 790
254 633
636 94
425 26
372 748
391 448
563 582
305 330
126 660
721 647
388 87
423 318
81 163
498 723
797 749
767 371
506 269
457 282
76 610
111 438
270 114
165 160
99 406
742 358
744 534
31 560
731 442
507 173
529 410
92 111
250 301
690 606
793 245
14 169
105 327
361 410
497 706
109 525
259 767
70 769
278 687
190 200
389 216
193 239
782 698
90 36
454 717
73 767
187 521
80 615
796 530
391 789
445 576
408 389
418 149
130 363
594 720
70 480
408 302
118 82
49 633
108 118
125 751
550 463
602 461
274 1
611 312
387 505
316 49
9 289
356 389
104 438
431 638
571 501
74 793
207 431
330 245
186 651
354 633
679 587
543 693
122 371
782 72
267 582
641 482
643 89
94 160
516 362
388 645
479 147
8 139
726 368
32 710
804 44
453 154
218 708
716 268
41 69
454 670
298 227
445 709
462 349
283 384
434 606
34 124
465 181
623 788
370 747
19 634
629 343
370 4
597 382
466 349
265 331
105 644
396 701
625 77
290 325
18 574
645 611
408 542
298 609
29 40
27 23
345 696
128 263
221 651
353 499
209 428
779 559
319 648
656 211
503 589
414 525
808 345
735 491
458 389
239 77
370 172
281 613
673 494
655 639
450 420
161 306
750 236
237 487
627 44
224 511
702 574
629 166
482 398
123 384
103 739
731 26
808 119
184 380
383 548
403 39
278 15
61 373
192 775
466 772
391 292
544 320
198 664
354 472
716 349
346 528
476 583
757 221
24 490
807 111
4 493
32 378
808 197
715 34
209 180
791 308
261 276
335 317
799 642
104 284
729 194
736 421
288 67
198 442
40 548
437 558
295 558
215 573
333 386
337 380
372 600
66 287
13 410
713 233
236 152
808 553
39 112
405 272
7 480
412 166
267 621
273 51
787 764
238 240
554 529
719 249
705 749
189 127
65 469
715 622
591 805
205 68
248 404
189 329
208 296
586 785
162 178
796 290
808 214
366 537
665 281
204 691
116 64
193 83
194 268
640 41
288 638
402 193
539 384
370 222
119 720
446 654
30 163
327 306
771 309
241 610
755 271
79 744
401 766
432 690
333 317
551 99
93 476
40 216
496 266
170 10
65 315
728 730
749 166
264 337
72 339
552 392
383 578
441 463
645 566
186 750
619 146
672 801
583 803
126 495
551 321
535 604
252 37
577 305
99 347
541 299
11 695
359 720
640 516
426 8
281 779
68 270
193 697
116 556
199 237
272 765
3 459
597 155
719 683
5 527
82 147
97 292
135 362
601 482
753 164
202 127
38 4
57 3
205 226
121 736
61 296
338 802
11 607
601 275
451 660
369 722
767 410
296 410
620 803
386 25
481 515
493 18
580 767
524 348
454 727
453 460
303 474
730 495
569 573
609 332
517 459
756 405
519 475
796 150
506 223
60 229
304 257
124 335
359 229
721 692
596 498
458 791
274 227
422 698
329 110
443 182
149 510
658 751
205 547
662 239
371 642
708 126
354 695
311 630
547 189
624 718
514 357
167 52
541 178
602 192
140 7
361 227
752 733
195 244
219 275
311 611
208 346
707 765
65 413
20 352
657 622
200 738
754 150
275 243
657 117
578 488
597 444
392 480
102 64
619 438
1 385
625 793
731 143
386 421
261 130
65 513
589 701
799 188
175 310
395 433
549 650
142 270
333 229
479 273
617 381
393 107
88 589
31 791
451 102
536 292
2 612
543 300
406 773
443 87
9 750
165 279
234 48
640 339
110 743
36 206
661 136
368 348
76 101
422 692
614 279
392 60
259 752
230 12
784 248
253 272
611 73
679 750
258 755
631 538
99 45
318 500
501 738
636 713
250 380
786 602
199 435
383 440
75 635
722 392
663 732
526 552
182 703
69 542
35 642
237 141
202 330
341 286
648 229
282 698
78 583
465 801
477 698
715 264
529 472
217 558
159 770
327 593
95 565
519 648
353 148
333 523
373 89
562 173
595 406
252 453
625 741
804 242
626 773
328 704
511 239
421 653
596 522
423 542
504 738
265 644
372 466
691 113
68 642
469 743
715 140
625 593
475 221
78 114
350 556
27 142
615 257
359 806
503 413
529 734
676 206
57 352
145 642
420 268
408 460
381 471
300 375
728 160
631 522
416 758
163 98
327 405
366 607
12 491
187 782
187 120
478 681
427 124
464 770
377 121
451 744
1 537
237 424
544 694
222 658
406 735
218 237
281 156
690 183
546 400
338 446
546 166
252 126
568 718
536 690
628 607
511 357
204 505
723 654
208 577
763 145
599 192
717 512
188 10
569 610
314 49
346 301
95 801
406 433
778 540
518 430
186 527
316 301
29 808
680 21
604 188
699 429
496 347
406 615
632 738
543 244
780 234
671 286
341 18
178 677
292 7
19 713
96 634
379 64
199 220
551 520
11 617
250 393
128 98
678 633
70 98
163 668
76 542
365 563
792 641
685 489
315 642
155 540
303 542
782 28
674 701
80 488
217 318
516 72
275 752
558 455
629 60
529 204
524 627
377 223
780 607
106 526
808 351
15 754
473 565
754 181
681 723
520 325
541 241
798 442
123 494
506 474
514 603
787 612
277 446
611 767
154 43
218 377
525 232
603 703
13 468
135 678
346 562
754 407
80 37
649 769
165 782
83 573
483 160
413 703
33 334
640 391
454 611
3 534
59 235
386 377
82 744
82 200
65 768
745 695
302 727
780 631
288 470
451 785
789 309
739 653
591 56
316 60
427 99
557 117
427 714
162 323
273 633
416 572
205 170
479 799
579 101
47 246
708 612
744 686
399 387
184 773
457 384
721 148
358 608
529 300
675 349
106 375
108 23
588 380
273 83
42 104
708 244
529 732
467 669
470 698
255 538
623 769
187 721
633 180
445 547
465 346
219 491
321 619
328 409
753 101
570 565
740 357
208 670
580 687
295 17
263 184
176 98
436 73
488 112
20 264
586 705
4 194
776 624
522 515
377 490
807 332
604 17
414 512
623 226
159 539
330 429
556 729
522 268
562 794
207 556
671 365
394 724
464 163
1 160
42 514
555 460
204 195
61 733
460 341
649 33
419 582
379 312
287 339
786 229
294 310
454 448
333 359
793 638
391 587
313 410
419 770
663 389
22 119
316 235
576 486
388 175
7 635
395 764
531 770
141 806
680 670
196 534
202 206
420 342
527 621
797 770
525 501
284 51
747 112
72 312
635 286
202 81
592 4
498 699
791 406
667 620
686 184
563 120
637 193
88 152
269 306
218 113
39 221
316 432
689 342
402 641
168 549
580 669
580 362
721 373
636 753
655 791
186 232
623 131
511 271
43 448
725 735
473 92
33 807
655 132
548 415
202 201
772 352
663 605
297 686
264 514
689 156
727 339
324 241
50 269
714 313
308 384
193 74
700 463
296 456
168 413
719 583
616 241
778 672
673 736
214 373
345 791
344 777
800 678
679 352
525 401
167 168
580 337
250 447
285 513
452 791
771 157
74 265
334 279
481 225
172 227
572 765
191 284
671 203
108 233
583 416
641 697
744 399
535 221
78 751
208 279
140 710
778 143
524 415
344 431
51 310
414 382
287 579
1 704
623 805
365 757
314 20
167 500
552 384
121 113
581 619
68 229
140 730
552 213
109 752
238 6
21 41
641 766
171 801
119 257
141 309
417 137
608 438
184 499
720 144
295 271
443 53
423 684
583 698
680 358
344 249
718 384
313 399
117 460
401 688
452 615
108 308
325 330
536 508
419 704
792 102
41 200
512 500
647 472
559 10
618 732
637 236
141 221
498 792
57 72
62 364
538 60
419 14
230 263
160 500
597 738
551 141
225 133
741 340
796 590
193 380
342 170
59 26
732 268
133 714
8 482
575 466
65 314
298 789
161 708
161 783
518 459
475 330
97 109
45 180
780 758
547 709
435 18
473 702
555 747
793 735
312 44
639 539
548 761
401 148
368 729
224 227
316 134
333 800
803 101
543 556
473 451
95 699
419 609
402 475
657 184
261 691
79 220
456 248
592 578
302 192
620 459
269 510
716 41
310 384
756 240
666 303
666 152
557 332
407 336
762 148
106 429
452 177
680 586
22 521
334 704
59 184
40 198
483 144
543 67
122 237
679 721
517 676
2 38
403 435
687 579
763 659
354 708
506 472
159 790
806 642
753 790
238 448
1 672
303 87
494 788
596 324
617 518
66 615
583 3
789 374
293 701
421 140
477 490
388 475
105 777
11 599
583 784
333 496
550 506
14 622
167 34
353 447
465 51
781 802
778 664
362 240
54 730
182 399
274 164
94 573
369 98
647 30
586 278
179 148
414 600
74 521
271 241
681 653
403 104
191 229
539 180
261 368
453 201
524 442
728 688
639 720
390 265
298 798
497 641
326 180
42 353
350 318
43 56
761 245
460 490
366 336
711 212
456 112
421 593
666 474
795 332
84 320
577 412
12 447
196 172
569 590
144 442
396 698
19 32
646 143
355 522
78 637
682 244
9 749
431 279
15 802
470 507
412 448
722 688
156 14
176 271
17 336
179 705
70 177
147 499
689 617
797 456
405 265
377 338
354 167
138 650
414 241
550 213
149 735
426 90
563 801
278 305
617 145
471 115
32 626
141 687
202 331
58 212
131 246
505 701
78 147
445 660
483 577
486 766
196 365
90 805
325 399
471 480
707 318
476 416
204 285
350 409
86 561
734 735
806 401
121 490
601 509
250 277
584 600
661 257
124 16
167 120
313 139
764 751
673 211
11 468
431 114
586 506
14 579
570 272
551 214
109 703
196 751
405 334
356 509
226 509
541 263
798 352
285 785
450 402
36 721
239 609
699 656
494 268
259 50
722 198
280 77
689 697
779 149
139 728
746 192
473 23
299 442
59 52
168 770
171 542
210 751
616 630
671 272
397 241
341 382
674 54
61 272
42 769
165 209
652 732
541 730
49 260
303 763
646 407
715 798
220 400
699 568
23 349
335 10
156 802
285 706
159 506
17 49
54 678
328 785
711 672
37 444
420 308
629 755
576 442
652 514
250 180
808 350
267 396
133 75
699 428
670 81
634 183
429 701
22 5
694 353
617 488
110 157
555 685
408 201
367 749
25 254
464 511
246 406
315 101
141 229
364 600
39 639
741 283
117 166
616 326
321 267
123 131
452 298
551 85
185 702
222 611
82 206
597 34
802 567
325 724
199 773
147 301
229 442
276 708
140 229
94 615
598 3
122 501
711 725
505 542
586 388
453 785
57 24
60 512
39 743
423 249
189 214
797 609
523 730
372 332
156 739
50 201
196 120
288 265
806 442
350 518
388 231
544 629
210 332
670 213
11 133
431 254
556 654
550 64
572 392
440 697
737 421
60 212
207 808
523 501
745 82
66 120
366 438
395 236
288 34
531 405
550 467
366 170
369 326
511 7
423 97
325 622
453 116
58 130
78 393
633 291
597 781
66 794
462 510
13 769
276 447
596 75
464 18
618 533
33 137
288 383
531 301
91 456
471 603
383 158
223 735
647 564
778 142
13 600
554 712
492 36
325 364
73 387
40 159
108 102
702 92
647 510
354 310
83 291
176 591
187 777
200 724
605 506
91 291
50 197
401 143
165 254
403 18
259 377
405 181
722 793
9 143
302 766
162 458
473 346
311 565
518 589
317 132
27 681
563 340
513 213
34 701
670 172
403 496
721 285
122 415
778 595
804 52
364 304
441 534
189 709
540 211
523 173
84 410
302 10
381 393
753 672
624 196
793 44
47 135
622 212
476 308
219 323
555 237
540 485
388 647
481 214
486 461
445 456
727 380
227 180
195 746
252 265
235 323
128 76
699 775
517 372
198 138
196 500
228 664
799 360
411 770
637 565
13 586
694 30
406 371
185 587
666 788
259 173
425 693
689 544
249 25
763 173
639 300
416 294
661 747
4 725
758 234
481 126
409 201
618 628
526 284
270 767
252 606
128 623
347 399
476 183
678 521
775 18
153 263
151 688
191 278
305 630
105 593
125 195
162 79
623 686
346 31
628 305
517 381
187 630
22 510
337 488
390 634
355 428
234 112
434 622
643 171
240 343
792 462
190 272
390 269
690 242
637 217
196 639
140 732
745 120
59 502
20 183
331 241
258 691
116 310
741 720
719 731
190 227
699 729
353 376
486 309
566 334
786 103
164 794
153 610
99 295
479 350
797 58
88 446
783 438
804 92
113 394
153 374
763 309
419 755
228 272
257 410
712 755
215 634
661 209
19 650
367 325
120 126
780 180
67 236
105 289
293 530
645 152
84 647
193 458
498 669
710 438
269 180
435 180
718 534
511 316
42 421
61 647
460 364
561 188
337 743
467 720
151 760
30 201
342 144
558 168
734 459
55 654
368 192
2 608
361 222
250 236
508 750
342 692
185 606
437 565
629 726
802 107
707 573
524 217
599 631
283 262
67 213
729 378
92 493
88 520
456 754
700 512
2 751
630 449
706 170
99 708
541 336
285 701
626 807
106 504
476 685
161 505
280 408
255 260
609 304
366 434
498 401
686 428
102 194
345 245
715 466
165 418
19 555
476 508
197 300
514 43
503 279
34 751
95 397
503 219
778 602
84 114
319 574
469 163
285 634
33 209
532 429
219 311
536 115
347 169
478 85
320 750
723 733
431 193
217 794
716 324
112 474
520 124
259 464
81 240
373 615
356 331
73 449
381 648
511 553
40 193
628 194
591 510
594 430
297 310
119 457
586 343
139 739
565 735
507 299
161 775
695 428
333 651
246 441
254 114
543 264
504 306
305 263
218 406
492 25
516 302
131 373
168 521
81 291
777 757
285 740
531 244
794 701
54 53
190 110
191 307
467 282
315 474
768 268
182 755
630 651
274 61
280 296
477 376
481 458
228 255
707 273
67 59
591 607
241 380
335 384
120 154
504 132
467 120
353 243
416 773
626 306
239 147
186 80
465 50
29 721
358 242
355 523
65 741
386 390
122 100
208 101
453 343
124 615
536 724
293 622
187 41
373 538
465 265
559 802
321 698
70 31
756 7
381 448
418 330
763 724
646 537
494 602
648 54
499 739
135 593
11 18
464 268
713 140
399 603
36 423
494 144
277 256
437 505
652 204
67 267
162 430
269 668
219 196
455 223
275 726
519 456
168 646
722 213
280 64
65 766
464 306
637 635
786 694
417 630
786 460
255 393
517 550
96 504
81 116
583 279
778 751
617 413
441 599
710 183
486 152
34 505
477 515
400 46
189 347
402 139
350 664
205 320
276 656
443 311
135 590
707 89
691 307
727 10
552 718
529 350
736 114
402 282
702 779
265 489
103 502
17 113
554 351
257 312
4 137
244 534
63 649
652 525
122 118
433 449
306 410
40 189
204 286
456 234
569 229
373 748
462 738
465 206
787 154
800 343
231 137
786 704
804 295
689 459
734 751
607 306
313 114
594 293
151 797
99 84
762 169
68 55
652 775
434 307
535 358
93 217
665 630
133 637
82 407
33 146
799 381
358 296
30 789
287 169
381 137
12 256
699 236
395 392
597 484
484 150
619 14
13 254
141 468
342 650
755 766
720 428
645 393
570 374
190 320
63 210
686 487
767 698
381 790
555 378
350 650
370 435
204 766
408 567
303 755
673 286
70 718
784 641
56 211
787 713
619 638
679 714
575 196
170 752
624 746
64 472
335 576
526 109
636 791
783 509
551 528
40 711
222 212
20 485
758 490
464 210
66 103
447 491
676 393
586 196
418 255
661 161
728 332
21 322
189 672
315 621
445 193
450 140
603 510
670 472
396 669
456 244
190 117
258 145
440 429
212 291
447 201
251 271
142 210
643 723
237 229
524 791
756 540
578 291
498 732
617 772
31 320
566 256
382 582
95 424
737 565
731 174
131 675
151 241
524 621
154 192
299 802
546 734
764 393
784 642
803 245
731 368
554 670
492 324
572 353
250 745
21 331
350 371
65 190
365 724
195 559
42 56
341 449
91 422
333 664
458 650
511 132
636 373
673 229
175 477
488 509
237 409
747 308
535 646
649 332
782 736
558 331
427 266
104 173
658 393
68 433
106 266
785 266
399 309
40 693
238 749
295 697
295 196
423 403
581 763
34 110
513 574
1 737
381 688
679 233
3 362
758 627
519 750
577 470
333 557
427 101
210 603
711 280
713 540
570 255
731 568
607 749
169 241
150 486
99 112
389 33
798 306
637 378
249 553
214 222
270 348
218 590
21 272
39 33
277 310
431 84
761 472
778 339
67 107
758 43
567 384
383 72
60 236
5 573
63 682
366 144
670 364
391 686
252 363
623 340
689 334
221 351
168 85
151 302
335 774
118 242
693 331
783 132
482 579
97 791
756 80
238 104
296 526
466 505
85 507
729 351
302 152
36 496
41 147
476 162
350 74
305 635
806 738
287 705
553 429
197 631
591 683
481 410
248 635
636 534
638 349
451 373
570 30
570 587
28 51
648 764
757 774
281 521
29 624
